56
M-D01 cycle 3
C   2.3124815497 -0.4094690718  1.6906963060
C   1.7399626542 -0.1917306951  0.2670703051
C   2.6885822552  0.7051633542 -0.5642257864
C   2.6889273436  2.1657116354 -0.1053685780
C   1.2897683505  2.7840775934 -0.0561405479
O   1.1039474667  3.9858725378 -0.2268526997
C   0.1909175157  1.8621748926  0.3052708210
C   0.3882938685  0.5285521329  0.4503702646
C  -0.5908878054 -0.4807761362  0.9567848448
C  -1.0181760470 -1.3225038599 -0.2692819417
C   0.1831858718 -2.3397705564 -0.2190510237
C   1.5458884773 -1.5958610889 -0.4646008641
C   2.7476547452 -2.5498800074 -0.3370052151
C   2.6095533223 -3.7810857328 -1.2520210607
C   1.2847021317 -4.5230429239 -0.9980439644
C   0.1103524758 -3.5284236028 -1.1763829396
C  -1.1524930239 -4.4087317066 -1.1758031267
C  -0.6741830758 -5.7678655473 -1.7540870845
C   0.8517265584 -5.6110860734 -2.0273410518
C   1.1442328872 -5.3207611560 -3.5198748256
C   1.2678792569 -6.7240840210 -4.1104612005
C   1.7843256552 -7.5539056646 -2.9382791326
O   2.3110135340 -8.6391902267 -2.9472071652
O   1.5469554732 -6.8615248379 -1.7784057643
C   1.3213918325 -5.1669815416  0.4040356061
S  -0.9686650452 -0.4591507741 -1.9330068765
H   2.3348411780  0.5399731384  2.2604122237
H   3.3472316867 -0.8009646101  1.6421929328
H   1.7082631324 -1.1317668803  2.2734833702
H   2.3531896755  0.6705833405 -1.6257115990
H   3.7193697907  0.2956105553 -0.5541332392
H   3.3258475458  2.8045373499 -0.7476496962
H   3.1058005173  2.2488615440  0.9234518628
H  -0.7957093519  2.3171172538  0.4848395123
H  -0.2656229266 -1.1005210933  1.8144600321
H  -1.4792235625  0.1008311903  1.2838139639
H  -2.0023110390 -1.8127261819 -0.1521821322
H   0.1702315195 -2.7414740665  0.8191592773
H   1.5163852684 -1.3483743676 -1.5426505637
H   3.6816030711 -2.0117320319 -0.5990103687
H   2.8682026778 -2.8731321150  0.7173995437
H   2.6436216770 -3.4300626521 -2.3046007052
H   3.4759211974 -4.4614066736 -1.1116213637
H   0.2044777001 -3.0994395777 -2.1990858248
H  -1.9636682888 -3.9526246571 -1.7763999549
H  -1.5471103592 -4.5352085496 -0.1458790500
H  -1.2178528674 -6.0570807552 -2.6751956926
H  -0.8147072038 -6.5941539464 -1.0313092161
H   0.3580182728 -4.6987423983 -3.9872039677
H   2.1079491988 -4.7868577020 -3.6295727128
H   1.9466727844 -6.8172818433 -4.9782058536
H   0.2870164887 -7.1481020634 -4.4149167246
H   1.5398622290 -4.4225446981  1.1924540395
H   0.3660256025 -5.6575179716  0.6710503183
H   2.1082025362 -5.9440644143  0.4373146218
H   0.3367051146 -0.1299280826 -1.9690934408
