56
QM-native bounded normal-mode perturbation seed=5101 index=7
C   2.057858952717 -0.607612874139  1.766295146909
C   1.687307008446 -0.249430154103  0.309580437362
C   2.797773391000  0.610144226555 -0.323214696965
C   2.847808035492  2.047327964481  0.171321229469
C   1.511586714419  2.754752975103 -0.006626008330
O   1.408725484477  3.963755558912 -0.191446432271
C   0.321891106756  1.886551416686  0.126643912519
C   0.381160458840  0.540053495289  0.335696909237
C  -0.875255441240 -0.238356202375  0.612891677946
C  -1.053892265372 -1.444788822733 -0.319265238424
C   0.199772963444 -2.338105003180 -0.232937204622
C   1.496281695120 -1.549401068236 -0.561456609989
C   2.739980661878 -2.459956722773 -0.566052145342
C   2.583543814507 -3.705467718221 -1.451161596187
C   1.332060980708 -4.512410385253 -1.041173486025
C   0.113123375877 -3.574144580537 -1.132964757212
C  -1.117155095548 -4.499501478578 -1.025225322371
C  -0.623008170656 -5.858360139133 -1.593458206340
C   0.865224609516 -5.637173251644 -1.998433469417
C   1.011239083851 -5.376794106629 -3.533763163696
C   1.147872791582 -6.799014243557 -4.090707510459
C   1.802684802859 -7.569970586826 -2.945558677226
O   2.374565832725 -8.633583036042 -2.971021228801
O   1.627304769197 -6.843614479984 -1.790186618714
C   1.528477141041 -5.121955169352  0.344651420259
S  -1.482432346737 -0.898579785732 -2.041475366613
H   2.089057270829  0.295697452112  2.406898261385
H   3.054181799442 -1.088636959255  1.811159196607
H   1.326984258341 -1.307016538967  2.217510783173
H   2.642320577645  0.618742832070 -1.424442515069
H   3.781597558411  0.129754274596 -0.150598289260
H   3.634859306009  2.629328263324 -0.347008351624
H   3.097074058817  2.082363605290  1.255867783421
H  -0.647054663580  2.413189693671  0.130238096258
H  -0.838714843432 -0.629201879540  1.655573697125
H  -1.754336205851  0.431656481568  0.547993800945
H  -1.941909516739 -2.019776692423  0.012749993760
H   0.245883266346 -2.669637988933  0.831045163373
H   1.364092325752 -1.190451831180 -1.608843574749
H   3.620351305149 -1.878053083274 -0.905083738265
H   2.975470664944 -2.786770911014  0.467358136992
H   2.480213130719 -3.383601768622 -2.508161177304
H   3.502071169491 -4.326925271270 -1.389153168133
H   0.131260152553 -3.168220767566 -2.170393457194
H  -2.014417955563 -4.093530342292 -1.533202874011
H  -1.382062880508 -4.623326323994  0.046122981624
H  -1.194376034979 -6.190004546629 -2.483902451744
H  -0.700093831177 -6.672263942838 -0.846735346294
H   0.172514231479 -4.791771019261 -3.956748667154
H   1.947055164884 -4.821100775196 -3.738976149560
H   1.753280981588 -6.894762320953 -5.011235326328
H   0.167383071109 -7.280661630218 -4.295502022159
H   1.788065749743 -4.342326707521  1.084955083472
H   0.652527083737 -5.676775585165  0.732788712317
H   2.375040245573 -5.833475182970  0.295316833675
H  -0.702967503273  0.232150065164 -1.967462039470
