56
QM-native bounded normal-mode perturbation seed=5101 index=3
C   2.051715767490 -0.625976506856  1.765550428830
C   1.698793249546 -0.251656192034  0.300206791356
C   2.804742615923  0.621104947468 -0.325940972050
C   2.827257094062  2.035413244570  0.167530679811
C   1.518766425795  2.757969873927 -0.003559695320
O   1.408179443535  3.966898807884 -0.192436987931
C   0.331723718093  1.895832943337  0.136200560242
C   0.363717852697  0.540992122867  0.312648711524
C  -0.892147911595 -0.250688811786  0.627982670631
C  -1.030338710863 -1.422734967298 -0.316117039019
C   0.194343797553 -2.347778306104 -0.233496430189
C   1.492032396442 -1.551432900952 -0.570083108931
C   2.731232577288 -2.462079283931 -0.561938029139
C   2.596189243147 -3.709078587790 -1.456222729517
C   1.328983301336 -4.512830953864 -1.049069819253
C   0.110726644036 -3.582146296184 -1.133524394762
C  -1.113782167916 -4.490347846278 -1.014804122617
C  -0.616650514601 -5.853946964622 -1.604414085470
C   0.863973608928 -5.645608232539 -2.006758652751
C   1.013166458613 -5.384084083980 -3.534190770207
C   1.147189240976 -6.785754175469 -4.086265701584
C   1.797413326153 -7.566999553668 -2.944353084930
O   2.373044615821 -8.626558590310 -2.965756716270
O   1.634471230868 -6.843682122539 -1.786389594684
C   1.527794130442 -5.123679283657  0.356389943078
S  -1.478037078869 -0.896782452192 -2.030234856148
H   2.090479322588  0.277995592165  2.405262168377
H   3.037349228492 -1.127101004657  1.833064474822
H   1.296334298080 -1.306519968636  2.206046943829
H   2.633917637868  0.647669521387 -1.424940896852
H   3.815513601161  0.186713245331 -0.177231632275
H   3.618418151786  2.594426596712 -0.370606439261
H   3.098917448620  2.081609267408  1.246506467792
H  -0.620726857134  2.453275053323  0.112295105147
H  -0.876223092893 -0.629288324721  1.676300308305
H  -1.789630301001  0.391347796360  0.517773733259
H  -1.950980358648 -1.971097875573 -0.025888558526
H   0.246883796457 -2.689210339220  0.826542012286
H   1.365521060852 -1.199810998758 -1.620743054521
H   3.593530691631 -1.865804870240 -0.923778119244
H   2.988007643578 -2.760361192494  0.474624530353
H   2.489824453176 -3.358742758040 -2.504571435785
H   3.519526506933 -4.325316700159 -1.411797698191
H   0.094748510413 -3.182662262871 -2.173182334338
H  -1.976144301926 -4.051797881998 -1.556297548799
H  -1.422240267820 -4.616024807334  0.044348111076
H  -1.205266800272 -6.201374784764 -2.476971301813
H  -0.671569072147 -6.659917040685 -0.847796805270
H   0.165937177940 -4.819548158269 -3.966854860494
H   1.941029284450 -4.814854800166 -3.735451234196
H   1.738881179138 -6.869970532616 -5.016271554608
H   0.156285354527 -7.246787711490 -4.287225505085
H   1.823007343683 -4.372299817911  1.114982183375
H   0.678017467179 -5.713120762549  0.758814013623
H   2.380885334437 -5.827135549880  0.245653016913
H  -0.535512096872  0.088544552555 -2.187940253839
