56
QM-native bounded normal-mode perturbation seed=5101 index=1
C   2.044854889265 -0.589279347799  1.771695963333
C   1.682234542021 -0.260643966155  0.308713684347
C   2.798321253940  0.604261027902 -0.332893021560
C   2.850550130453  2.047671625465  0.173624740064
C   1.508801929571  2.748460170460 -0.004132207794
O   1.415107531898  3.957728088591 -0.190734601250
C   0.317450071101  1.884927408139  0.140251163503
C   0.373945614738  0.537262577892  0.331577645002
C  -0.880504440465 -0.235215876291  0.618617648895
C  -1.042109371812 -1.445768269233 -0.317943662319
C   0.211205384859 -2.337816436942 -0.244137502364
C   1.502230950962 -1.561060932215 -0.554091776264
C   2.748548437049 -2.453433259949 -0.570420949747
C   2.585963689897 -3.697148564789 -1.462477547106
C   1.322253006496 -4.509271598064 -1.054575790126
C   0.108527036840 -3.568746111759 -1.142484646107
C  -1.101177511193 -4.502151435071 -1.004824944361
C  -0.619960750416 -5.852653221703 -1.600338760741
C   0.859157172957 -5.646777086580 -2.009833108098
C   1.012074917345 -5.382811815724 -3.527148466669
C   1.151750870655 -6.799251759886 -4.087477923851
C   1.799859895082 -7.568767796582 -2.948300815124
O   2.373186457669 -8.629457364759 -2.975333294153
O   1.630316075272 -6.856579234785 -1.793286939688
C   1.511859243500 -5.101222557339  0.361622241343
S  -1.479946672785 -0.897888434826 -2.034714134465
H   2.059805204905  0.333805388392  2.383871937524
H   3.044245529003 -1.061044945142  1.845106925929
H   1.312314798829 -1.278049833210  2.236560992612
H   2.625299281467  0.622149594473 -1.431664825545
H   3.781206063027  0.115504299010 -0.179531242110
H   3.635306023376  2.647824347587 -0.327109739319
H   3.082640523221  2.074944800804  1.262437810948
H  -0.656281432647  2.402188525846  0.093813074388
H  -0.800661869145 -0.632940368863  1.656784643490
H  -1.768702483908  0.424641986176  0.588835953787
H  -1.918352140036 -2.044022365638  0.004483141750
H   0.252249081356 -2.682111951315  0.815515981230
H   1.380558656101 -1.201723885547 -1.602987644319
H   3.619812431780 -1.856296443607 -0.906037917766
H   2.993202682464 -2.792581592257  0.457352149796
H   2.511845186819 -3.385159162999 -2.525383408656
H   3.497490403757 -4.326209794137 -1.372853980977
H   0.091767054971 -3.170348958376 -2.182393813324
H  -1.988025472479 -4.101877388825 -1.533846069700
H  -1.389311038998 -4.625251876540  0.059983361590
H  -1.227967675719 -6.168114489430 -2.471153879635
H  -0.676483073263 -6.673208135488 -0.859973000288
H   0.169444655027 -4.800955021870 -3.945624333570
H   1.944199228795 -4.818397869650 -3.722559116950
H   1.759093729992 -6.897468504923 -5.006069202958
H   0.170425211244 -7.279058647580 -4.291603369429
H   1.767284405249 -4.296922561510  1.077850753221
H   0.642602423849 -5.652492636519  0.772627435772
H   2.368811262477 -5.801850690912  0.335424724117
H  -0.487901555308  0.052227592330 -2.058232111262
