56
QM-native bounded normal-mode perturbation seed=5101 index=5
C   2.063457113933 -0.610583948349  1.763574771389
C   1.698781658575 -0.267987587105  0.305186024143
C   2.805090031030  0.611075916250 -0.325035790126
C   2.833661242866  2.051212247264  0.173406316793
C   1.515759903802  2.749837119767 -0.009534283381
O   1.408451093744  3.959168606762 -0.189196610944
C   0.331236374690  1.895449628670  0.144405366922
C   0.366336311134  0.540534094849  0.317311452023
C  -0.897253707539 -0.237052667914  0.632390429583
C  -1.024405298691 -1.429341382858 -0.337470723176
C   0.197746698139 -2.342517298718 -0.231554279397
C   1.491043052561 -1.554956730706 -0.549803413642
C   2.738003060471 -2.450652423115 -0.572724159763
C   2.572175607289 -3.707011951704 -1.443509328761
C   1.339464438655 -4.512074965735 -1.050095273838
C   0.104298942893 -3.566229508166 -1.147121209400
C  -1.116236611575 -4.501095827081 -1.009454529656
C  -0.627457585456 -5.852216102215 -1.601060118300
C   0.862564216692 -5.638502537397 -2.016105838342
C   1.014228952728 -5.385710352448 -3.526831609539
C   1.145099784955 -6.793828428697 -4.086256537606
C   1.798550042011 -7.568129946951 -2.944699837792
O   2.372228391020 -8.628874385928 -2.969456404174
O   1.632916848419 -6.853757737689 -1.789973554873
C   1.543327695538 -5.121174690513  0.351633013842
S  -1.484567902984 -0.901213312272 -2.037070877286
H   2.056126811266  0.318738064627  2.367878819313
H   3.058504033749 -1.086078120363  1.880809558924
H   1.306357602849 -1.284517085478  2.211943790252
H   2.635370414141  0.638255420353 -1.424182644268
H   3.803945498254  0.153363784438 -0.175651692542
H   3.610554846120  2.637605246806 -0.355028766926
H   3.080502150530  2.116909136916  1.257702833371
H  -0.630591567738  2.435333658690  0.018055933085
H  -0.841721845852 -0.626816540983  1.674090046571
H  -1.793295514719  0.410914943019  0.566766727945
H  -1.898903005749 -2.037531528856 -0.029955130224
H   0.182313993261 -2.703040299066  0.825072168406
H   1.313108724783 -1.189839565708 -1.589581227980
H   3.637893005363 -1.887395293111 -0.892991110121
H   2.937650507442 -2.771640226743  0.470957473818
H   2.474014846460 -3.385171566520 -2.501460720857
H   3.483555204027 -4.338728218004 -1.382789047529
H   0.103664563328 -3.166109233857 -2.186552592204
H  -1.995444632046 -4.113156071722 -1.561336788835
H  -1.425126033810 -4.602088901584  0.052526223563
H  -1.248036694142 -6.176259669213 -2.460061943625
H  -0.657035996094 -6.674792422157 -0.860883324536
H   0.159763847361 -4.818775083870 -3.941159152477
H   1.936759027437 -4.811560200728 -3.739148924867
H   1.751564415018 -6.871944187096 -5.007231057382
H   0.160662661321 -7.262205088343 -4.299902522059
H   1.751104036641 -4.336639221730  1.103690498039
H   0.620668312427 -5.636022129708  0.684047192617
H   2.363692109164 -5.864011305697  0.374621194000
H  -0.677573449557  0.207788715181 -1.960011687239
