56
QM-native bounded normal-mode perturbation seed=5101 index=2
C   2.045133814618 -0.604943240032  1.785202082460
C   1.688558986535 -0.259305117636  0.309983026576
C   2.809000068224  0.608934324621 -0.333371466589
C   2.840249301282  2.036615997674  0.166054744304
C   1.513502534970  2.755804997646  0.002625961718
O   1.411956160877  3.964584056955 -0.194542743200
C   0.321813784177  1.887442466519  0.147398754522
C   0.358867885763  0.530442417171  0.294193889064
C  -0.889116504155 -0.250421419339  0.629405801127
C  -1.042372848641 -1.435968445554 -0.293201975798
C   0.202526966187 -2.344530016956 -0.231185003093
C   1.505302630342 -1.535114261176 -0.571124589200
C   2.750654133479 -2.459449176500 -0.564742561588
C   2.576742349274 -3.707231112533 -1.451382739664
C   1.336299139403 -4.502045515348 -1.062663522773
C   0.107731614673 -3.565780245160 -1.152224726685
C  -1.101603522994 -4.500521366828 -1.001501996258
C  -0.626392300166 -5.860218324297 -1.609653704011
C   0.856015189851 -5.649321220539 -2.018549361416
C   1.015525248291 -5.399764997263 -3.527929487689
C   1.149072660558 -6.788476628762 -4.092525233129
C   1.801319057530 -7.565908803386 -2.947709804069
O   2.370890500298 -8.627589950386 -2.974729999962
O   1.630307684417 -6.851122372455 -1.784246353405
C   1.532312442270 -5.096992330918  0.367376632541
S  -1.479796622163 -0.894753887520 -2.040002629083
H   2.077705160772  0.333780816326  2.374533077851
H   3.052938197040 -1.060727172668  1.847062868252
H   1.327751586106 -1.285450245602  2.286140676156
H   2.611985814938  0.630265261858 -1.428440297704
H   3.809235094766  0.146553303931 -0.205229359996
H   3.636140707440  2.624701067809 -0.331229167489
H   3.077678989081  2.056559636566  1.254060546440
H  -0.643324867934  2.421465269566  0.075247215612
H  -0.824370956067 -0.616893648230  1.680117433237
H  -1.786637860279  0.393914597121  0.555823396523
H  -1.953490777190 -1.993244353464  0.006392896930
H   0.267632997935 -2.710334936593  0.819968119599
H   1.365992596393 -1.171249855531 -1.615316753850
H   3.637658136536 -1.910047755266 -0.941386826462
H   2.991545613230 -2.748999323711  0.478233799912
H   2.495460680567 -3.350621925349 -2.500347812192
H   3.482818784864 -4.347570691729 -1.398425992714
H   0.074603914101 -3.160143516556 -2.189053201619
H  -1.975094110420 -4.085194139804 -1.541878072559
H  -1.404973257147 -4.611163696152  0.060708767577
H  -1.251085114695 -6.192141172811 -2.463082004341
H  -0.651422839987 -6.676876292720 -0.862564262390
H   0.165298608393 -4.837055785482 -3.955869378326
H   1.939510066609 -4.821898051671 -3.722491617287
H   1.736214791857 -6.854852564147 -5.026990727158
H   0.156658039491 -7.246778229131 -4.292100288935
H   1.752070957052 -4.338880882733  1.142993099960
H   0.618379509518 -5.634950019881  0.687044463963
H   2.350199328568 -5.842830714825  0.362351072854
H  -0.497829427935  0.060437079610 -2.133511232351
