56
QM-native bounded normal-mode perturbation seed=5101 index=6
C   2.042491879450 -0.613720924513  1.766751248570
C   1.681553122203 -0.253019358840  0.312078403154
C   2.811043036658  0.609404029746 -0.331962738588
C   2.855348179677  2.048989815865  0.164300533014
C   1.505112588166  2.759620719659 -0.003528477598
O   1.414803405224  3.970717643426 -0.193205129581
C   0.316068699946  1.875608304417  0.142308386213
C   0.367135239230  0.529252830628  0.325127025980
C  -0.892104232850 -0.228739347787  0.605217623985
C  -1.044583982136 -1.430722270732 -0.303235461922
C   0.214204796109 -2.350996537891 -0.232359307921
C   1.496553151188 -1.552159621429 -0.571904024148
C   2.732336820893 -2.467268316317 -0.563594491015
C   2.592115986206 -3.707918837791 -1.453034766885
C   1.334824687889 -4.506812700934 -1.043646181928
C   0.117379212092 -3.584481612798 -1.139131853682
C  -1.116568108385 -4.496698438923 -1.016045448162
C  -0.627124185296 -5.857911899036 -1.601671716677
C   0.869805738858 -5.640993877390 -1.999847408190
C   1.014086631887 -5.376285389710 -3.536756937618
C   1.146141315450 -6.795846709934 -4.087440850784
C   1.802414163982 -7.565271149237 -2.947221782018
O   2.372556341220 -8.628214049888 -2.968542894641
O   1.631979370459 -6.848872093035 -1.790285964196
C   1.524012735895 -5.108231610230  0.351343016734
S  -1.477086239117 -0.895062769325 -2.032757807396
H   2.098541627398  0.290495253524  2.405008029780
H   3.037302750429 -1.100257052299  1.791716627984
H   1.318316857012 -1.309278165696  2.234520363027
H   2.619899072934  0.623538395398 -1.428077838659
H   3.796408645962  0.120320738225 -0.192933939005
H   3.652273012256  2.646511253104 -0.320995518030
H   3.077691707024  2.062080395492  1.256151776084
H  -0.665676494895  2.378327162554  0.094358745724
H  -0.791070029504 -0.645454250631  1.635483669746
H  -1.785435006694  0.425932089873  0.601959361098
H  -1.957354025410 -1.983706234745  0.000806794616
H   0.305716410263 -2.699733728860  0.823461380065
H   1.376978625053 -1.192306463416 -1.620189633119
H   3.593864309294 -1.878825133607 -0.938579621131
H   2.999034337478 -2.765851812085  0.470595344998
H   2.481467970521 -3.362705463315 -2.502214244542
H   3.515850835070 -4.323112668667 -1.406918736290
H   0.108146487618 -3.185356710747 -2.178549152518
H  -1.993889846927 -4.055974344872 -1.530840746727
H  -1.395622150154 -4.626863431324  0.050642605883
H  -1.206637408125 -6.212386646527 -2.478027213066
H  -0.686693840816 -6.659286513924 -0.840007040348
H   0.169795650931 -4.797516270728 -3.956556821015
H   1.947191329256 -4.819634573022 -3.751963560928
H   1.756963619106 -6.890135036750 -5.004321029666
H   0.167956694732 -7.279340089273 -4.297615186570
H   1.809043783589 -4.368107104577  1.124319534897
H   0.663399122196 -5.695463327116  0.728677756105
H   2.369415944682 -5.820497779841  0.246794417094
H  -0.532631178724  0.087792693712 -2.196517870882
