56
QM-native bounded normal-mode perturbation seed=5101 index=4
C   2.036820179368 -0.616830035678  1.780811214833
C   1.664519872166 -0.248015492619  0.308974423203
C   2.803226696416  0.612981343010 -0.337086374253
C   2.872665222970  2.048799004233  0.165559745826
C   1.503419765036  2.763076371009  0.002242114195
O   1.415159214437  3.972432940126 -0.195075057953
C   0.300667133613  1.870916838704  0.121382770211
C   0.377118468382  0.529607465483  0.337175281297
C  -0.864114221797 -0.232638282761  0.600098496677
C  -1.060792922114 -1.438064829949 -0.294420419474
C   0.212649706931 -2.338933353541 -0.237025592217
C   1.506365439400 -1.554913427320 -0.573366765097
C   2.741304051749 -2.462930214984 -0.558952286035
C   2.594290580132 -3.692645184816 -1.468850991967
C   1.315981975446 -4.515839584983 -1.050278792376
C   0.116693591810 -3.582325603797 -1.126194322729
C  -1.104492974989 -4.492551017277 -1.023307203735
C  -0.610534423212 -5.860256051133 -1.596671458309
C   0.863017072569 -5.650979810634 -1.997514431784
C   1.010088376638 -5.377969993870 -3.535378410949
C   1.153295508450 -6.794735559546 -4.084788634406
C   1.801819647432 -7.566107936579 -2.945849584951
O   2.373378592335 -8.628321679535 -2.969177946137
O   1.629390122463 -6.842465381988 -1.792051467408
C   1.511141539865 -5.121809826599  0.360917871737
S  -1.478577860597 -0.895114866955 -2.040219183500
H   2.126423273217  0.287332735686  2.417975118456
H   3.043003197562 -1.087026682861  1.744627687540
H   1.351669015649 -1.326919396417  2.288446130078
H   2.649019688686  0.607136201272 -1.438734893845
H   3.775912181008  0.111907884501 -0.156143213999
H   3.677693921316  2.644361880501 -0.310386593158
H   3.105623908884  2.019922844174  1.255919291878
H  -0.681210178399  2.374084676476  0.234075610860
H  -0.815463944134 -0.642445623686  1.635442648708
H  -1.741124040041  0.440471697570  0.557544292105
H  -1.963337293884 -1.974002096694  0.069784559227
H   0.323279520142 -2.656738989841  0.828562172577
H   1.428696652447 -1.211297267220 -1.632748194709
H   3.595060387197 -1.855320814634 -0.922578249600
H   3.023651803662 -2.800607517780  0.459842043076
H   2.537340869206 -3.376746093243 -2.531816256234
H   3.516084279198 -4.305372093680 -1.360484212167
H   0.111182070342 -3.173860117479 -2.162526892063
H  -1.987828384225 -4.058290810786 -1.532639706777
H  -1.377557793899 -4.631225854186  0.043784827756
H  -1.172249685282 -6.192477889002 -2.493601719509
H  -0.706975034398 -6.668492624650 -0.845187285900
H   0.180450965666 -4.789453869687 -3.971749283029
H   1.953161009979 -4.827907218215 -3.721650273543
H   1.751167436083 -6.900929726889 -5.008844785799
H   0.170669450781 -7.277154576882 -4.278194389889
H   1.832733496826 -4.345291929764  1.084937754628
H   0.693973269413 -5.726104589352  0.822532141960
H   2.390044275700 -5.795649152169  0.231223460201
H  -0.506316192272  0.071253677709 -2.055993852148
