56
exact QM-native source /Users/yazan/totah-lab/analysis/mettl7-phase2/execution-unit-05O/qm-native-minima/MIN01/trajectory-003.xyz
C   2.175433182400 -0.521818834700  1.765864639700
C   1.730812228900 -0.227173750000  0.310296158000
C   2.795146338700  0.638960509800 -0.409120694600
C   2.854024189100  2.085546074400  0.078358966800
C   1.497973745700  2.769479618300 -0.028632544800
O   1.380051216000  3.976377003800 -0.220063473400
C   0.327307312500  1.889961426800  0.171239348800
C   0.409765771400  0.546309281100  0.376657948600
C  -0.824145155500 -0.247683410300  0.706192294600
C  -0.999575517300 -1.422880922200 -0.265919774300
C   0.239879653500 -2.331138344600 -0.204232893600
C   1.542491192800 -1.554531537900 -0.514689044700
C   2.770947508400 -2.487284883500 -0.453817938800
C   2.627638717700 -3.722859727800 -1.359152055500
C   1.347046327200 -4.502444578700 -1.021752081300
C   0.142719909700 -3.539364449200 -1.134196297000
C  -1.096118094100 -4.450987513600 -1.054574445500
C  -0.618845823600 -5.801541865900 -1.653871157500
C   0.883403502900 -5.607147764000 -2.018159453900
C   1.080232434100 -5.315727117900 -3.525771464400
C   1.207498674800 -6.717895331500 -4.118380311500
C   1.813954542900 -7.528008230700 -2.975903459400
O   2.368553714200 -8.598716198900 -3.012417882000
O   1.626175735000 -6.836836749000 -1.806319909300
C   1.480939484000 -5.138337174900  0.378768723100
S  -1.477754409000 -0.852370608200 -1.955783610300
H   2.192038880500  0.406092670700  2.370277095700
H   3.192172671900 -0.959379979600  1.790006608900
H   1.491591750600 -1.232484240200  2.271258388300
H   2.555241800800  0.643507624200 -1.495217757800
H   3.791699424900  0.162910896400 -0.312422381800
H   3.593935192300  2.688828438600 -0.483266588100
H   3.160944203700  2.132570854600  1.147556935900
H  -0.648601929900  2.402052654600  0.207356874400
H  -0.687542435800 -0.689233181300  1.719622942000
H  -1.723529303600  0.395533132500  0.741684697800
H  -1.895058414300 -2.011954443200  0.019415522200
H   0.286313813600 -2.695432834200  0.848404820100
H   1.448214572000 -1.235091773500 -1.579279994600
H   3.680782600000 -1.926835109100 -0.749209109500
H   2.941855870100 -2.814507187600  0.591468172600
H   2.590298143500 -3.375444333400 -2.412830557400
H   3.521689223400 -4.374904570900 -1.265404742200
H   0.166790658900 -3.118822459100 -2.165437232600
H  -1.951542353800 -4.018538721600 -1.609295117300
H  -1.426171156700 -4.580509141100 -0.002712785400
H  -1.208796388600 -6.109197615800 -2.539833682500
H  -0.695174195700 -6.627062942800 -0.920713235800
H   0.251390246800 -4.717356327500 -3.948184527400
H   2.021141299700 -4.756098491900 -3.692267575400
H   1.836840119400 -6.796712973000 -5.024005162600
H   0.222407531000 -7.169547456600 -4.363704624800
H   1.722322559500 -4.385864159000  1.152275824600
H   0.556513783000 -5.654002265700  0.701083575400
H   2.289534438800 -5.893348780600  0.368967952000
H  -0.441381620200  0.017413169600 -2.128908185400
