56
exact QM-native source /Users/yazan/totah-lab/analysis/mettl7-phase2/execution-unit-05O/qm-native-minima/MIN01/trajectory-006.xyz
C   2.093788177600 -0.572211413100  1.773866540600
C   1.711971169500 -0.244582931100  0.307713896100
C   2.818747651500  0.615397739800 -0.353283093100
C   2.871477708600  2.056434887700  0.152408872400
C   1.530992299900  2.760419077900 -0.010034871900
O   1.427843456900  3.970380554000 -0.191180224100
C   0.344497457600  1.890936466000  0.130720381100
C   0.401722452800  0.544392235800  0.332158726200
C  -0.853799292200 -0.228809412700  0.633747180100
C  -1.020491308400 -1.443328857700 -0.289175058600
C   0.229226840400 -2.340769331100 -0.216726467200
C   1.521122488800 -1.552579142400 -0.545647541400
C   2.762111873100 -2.469931110300 -0.526147181900
C   2.609165679500 -3.711451237300 -1.420323438700
C   1.351413708500 -4.507634078400 -1.041322003900
C   0.132853976000 -3.561255473300 -1.133415029200
C  -1.092575650400 -4.487197821900 -1.018510375900
C  -0.612912341200 -5.835624800600 -1.619740830400
C   0.878884307900 -5.627165460900 -2.017535467400
C   1.039885225700 -5.349055242300 -3.532058642000
C   1.172061133600 -6.755642658200 -4.112934118700
C   1.812724766800 -7.546368012100 -2.975676106200
O   2.380565375200 -8.610106333000 -3.013307241500
O   1.639770062100 -6.846306838900 -1.809214518100
C   1.529621858800 -5.128720820000  0.360314203700
S  -1.490376188700 -0.918020420400 -2.001985866500
H   2.106188613100  0.345668005900  2.393709040800
H   3.100323418800 -1.030393503400  1.828953803400
H   1.377324332500 -1.275590504100  2.242182294800
H   2.628576114800  0.632181679500 -1.449039706800
H   3.804228721900  0.127637458300 -0.214135504100
H   3.644955771100  2.655298991800 -0.366900868800
H   3.127969246000  2.087148287600  1.235308922400
H  -0.625475318500  2.415535385300  0.134761778300
H  -0.793725421500 -0.606668014100  1.680354298300
H  -1.738118723700  0.434238650900  0.573802524800
H  -1.904574853500 -2.027365204500  0.037824931100
H   0.280952190900 -2.699071678500  0.837770170200
H   1.390724779500 -1.207603200400 -1.597923430400
H   3.655868057000 -1.900928039400 -0.851006367700
H   2.968466618700 -2.790324593700  0.515191489900
H   2.533052252500 -3.370647681300 -2.473981071700
H   3.516471743700 -4.348178661500 -1.351082777500
H   0.131317924500 -3.149493403500 -2.168088718600
H  -1.967957550000 -4.071404749700 -1.554976554900
H  -1.395427921500 -4.613515683300  0.041983759100
H  -1.218250855500 -6.154300543600 -2.491326331700
H  -0.665242489900 -6.657740184000 -0.880648437800
H   0.194421504400 -4.765592541700 -3.942293112700
H   1.969395987100 -4.779232404900 -3.725108789300
H   1.782729893300 -6.836211229200 -5.031101907800
H   0.187631543900 -7.221986727900 -4.332220059500
H   1.774117242500 -4.364487790500  1.121445014100
H   0.622134308400 -5.658233494700  0.707738989600
H   2.351431885200 -5.869114009000  0.339007614800
H  -0.596045095100  0.108930921300 -2.086445312200
