56
exact QM-native source /Users/yazan/totah-lab/analysis/mettl7-phase2/execution-unit-05O/qm-native-minima/MIN01/trajectory-008.xyz
C   2.075209902600 -0.585278935600  1.772640682500
C   1.701251640400 -0.248733555300  0.306649669900
C   2.813424402700  0.611753466800 -0.344380081700
C   2.863893531100  2.053044032400  0.161327929000
C   1.524893990100  2.756941220800 -0.003988536500
O   1.426453476300  3.967190063100 -0.185372294600
C   0.337937691500  1.887537804800  0.135242135400
C   0.389528712600  0.540252861100  0.330395032700
C  -0.865399549300 -0.235709231000  0.628286462700
C  -1.028570133700 -1.441699583600 -0.306110341100
C   0.220087967000 -2.341637305100 -0.227304670000
C   1.511320354900 -1.552014712100 -0.554003358700
C   2.755800434300 -2.464189148800 -0.546558950800
C   2.598784204500 -3.708096983500 -1.436992678300
C   1.345697400600 -4.506499038800 -1.047697774700
C   0.124178593600 -3.563962276100 -1.140234700200
C  -1.097991136000 -4.493101603500 -1.015784459200
C  -0.617108737900 -5.843482368300 -1.611974132500
C   0.873002767600 -5.633473848400 -2.015329546400
C   1.029277469900 -5.364851425500 -3.531979397700
C   1.162223708900 -6.774964797300 -4.104165118300
C   1.808348708100 -7.556856983800 -2.963829839200
O   2.378421773100 -8.619590289500 -2.996116490900
O   1.637746470100 -6.849436536200 -1.801511401200
C   1.531519766200 -5.118107827100  0.357033699900
S  -1.473155101600 -0.898417086300 -2.020165613500
H   2.092015626900  0.329733504500  2.396679551700
H   3.078800069900 -1.050013484400  1.828774700400
H   1.353415717300 -1.286463965100  2.235666863000
H   2.633462253800  0.628554636100 -1.441931240500
H   3.798035365000  0.125030836500 -0.196357903400
H   3.639915033300  2.652538621400 -0.353501686200
H   3.115019049500  2.083429643000  1.245625233900
H  -0.630995569400  2.413806372400  0.139792187300
H  -0.802768842600 -0.624111257700  1.670119429900
H  -1.752489301000  0.424986331000  0.577077722500
H  -1.917911366400 -2.025773744300  0.004572732300
H   0.267017075600 -2.695804055800  0.828785012800
H   1.375747639200 -1.200457385900 -1.603628119500
H   3.641717584800 -1.890951072400 -0.885074017700
H   2.979041021900 -2.781261656300  0.492416395600
H   2.513481419700 -3.369107466300 -2.490536615500
H   3.508322472600 -4.342276835400 -1.373821673100
H   0.118248434900 -3.156241651500 -2.176583732500
H  -1.978016856300 -4.083653327200 -1.549557033100
H  -1.394975889700 -4.614676048000  0.046922188500
H  -1.224309354500 -6.168185773300 -2.480027637500
H  -0.665065414600 -6.661845321300 -0.868443491800
H   0.181782844100 -4.785359186000 -3.943673905100
H   1.957345848900 -4.794835445700 -3.731145891700
H   1.770073520300 -6.860347185200 -5.023769669700
H   0.177960491700 -7.244535121200 -4.317214490300
H   1.772923612300 -4.347989478000  1.113129330000
H   0.628428780000 -5.651592507800  0.709737060100
H   2.357951957800 -5.853417255700  0.337840279500
H  -0.585837372800  0.136588522700 -2.075991102400
