56
exact QM-native source /Users/yazan/totah-lab/analysis/mettl7-phase2/execution-unit-05O/qm-native-minima/MIN01/trajectory-001.xyz
C   2.213458763100 -0.486575628700  1.753260273900
C   1.732523921400 -0.212118878600  0.305547773000
C   2.769437088700  0.657548002700 -0.448678827400
C   2.822172209300  2.109140197300  0.026627682600
C   1.456334074500  2.780807460100 -0.042308742300
O   1.320524517600  3.986002635000 -0.232493920400
C   0.301657262500  1.891391971600  0.202458409000
C   0.403881773900  0.549757464800  0.401333410700
C  -0.783917427500 -0.287599645800  0.779501466200
C  -1.002435609500 -1.396056364800 -0.263290298900
C   0.225167915300 -2.331582211000 -0.197278993400
C   1.539106724500 -1.557678080700 -0.495498124600
C   2.764889104800 -2.491424939100 -0.424160727700
C   2.624823551600 -3.725665407700 -1.332402148600
C   1.336745460100 -4.500633876900 -1.013263649600
C   0.136382139700 -3.532918187700 -1.137346904800
C  -1.106090168000 -4.440418160000 -1.076088905900
C  -0.625608075900 -5.791755815800 -1.671438842600
C   0.880788884800 -5.600519347100 -2.018590676700
C   1.094327480500 -5.304704044100 -3.523079578800
C   1.220873396500 -6.705783542800 -4.118887821900
C   1.812743408000 -7.522071558300 -2.973141502900
O   2.362664581300 -8.595247468800 -3.007715236500
O   1.617683129000 -6.833150525700 -1.803626486400
C   1.452984944100 -5.140347491900  0.386997945800
S  -1.311135514600 -0.732925456400 -1.963658315700
H   2.236983896800  0.447712406100  2.347622565700
H   3.234016570100 -0.916078349300  1.757093599600
H   1.548115894900 -1.197556526800  2.282029766900
H   2.499986799200  0.651200690400 -1.528145472000
H   3.774418154400  0.194645866400 -0.376230516400
H   3.538667552900  2.717366083400 -0.559327750400
H   3.159041451800  2.166103025300  1.086265839200
H  -0.677599365900  2.392662979200  0.271341226300
H  -0.608793430400 -0.770806161700  1.765447041200
H  -1.685428574600  0.349061875500  0.874020291000
H  -1.929335209600 -1.960853962200 -0.039567747400
H   0.255968772400 -2.707652297300  0.851465902800
H   1.451919381800 -1.252029753800 -1.563550251700
H   3.677581524300 -1.932791363300 -0.714730782000
H   2.928126505800 -2.817830458900  0.622849135200
H   2.601528194900 -3.376006415500 -2.385737818100
H   3.514829811000 -4.381797241700 -1.229222013500
H   0.174919484600 -3.107006842900 -2.165634885300
H  -1.953114826100 -4.004168044600 -1.640711427200
H  -1.449543657500 -4.570748625500 -0.028571663900
H  -1.206677962600 -6.097136747900 -2.564020218500
H  -0.712051817600 -6.617147113900 -0.939311652900
H   0.272660614800 -4.701135604600 -3.952178502000
H   2.039629226600 -4.749432692100 -3.678384137100
H   1.858775036400 -6.784666067200 -5.018532085500
H   0.236113573700 -7.151823055800 -4.375500207800
H   1.690008567700 -4.390435757000  1.164385458300
H   0.523114538500 -5.652906356800  0.698617071800
H   2.258320866900 -5.898998210900  0.383665895000
H  -0.131600488100 -0.066793177100 -2.093165128900
