56
exact QM-native source /Users/yazan/totah-lab/analysis/mettl7-phase2/execution-unit-05O/qm-native-minima/MIN01/trajectory-009.xyz
C   2.059065043000 -0.596443245000  1.773329768800
C   1.691647299900 -0.253266459500  0.307255417000
C   2.808719511200  0.608122874900 -0.334043714800
C   2.855630708200  2.049246319700  0.172476152500
C   1.517791146700  2.753460805500 -0.000088353700
O   1.421581403200  3.963515448900 -0.183781035300
C   0.329243490500  1.885423951200  0.134938802500
C   0.381080869600  0.537680898800  0.328303704500
C  -0.875720039700 -0.237942184000  0.619188370400
C  -1.034993814200 -1.441431766700 -0.319008399200
C   0.211909511500 -2.342571347300 -0.234771804400
C   1.502536195800 -1.551933211700 -0.561121615600
C   2.749869772100 -2.460586276200 -0.564204053000
C   2.588518658200 -3.706577648900 -1.450983692100
C   1.339440606200 -4.506368834600 -1.052433282300
C   0.115225920200 -3.567146400400 -1.144197485100
C  -1.104040599000 -4.499240944800 -1.011763541000
C  -0.621942950000 -5.850612683500 -1.604471672200
C   0.866674707800 -5.639245013800 -2.012658087200
C   1.018999732000 -5.378178798600 -3.530953501300
C   1.152834178300 -6.791072097200 -4.095987298100
C   1.803621801100 -7.565730079900 -2.953300802600
O   2.375850551500 -8.627433760100 -2.980952567400
O   1.634743906400 -6.852388860700 -1.794341088700
C   1.532397162000 -5.110394974400  0.354581441600
S  -1.470888720700 -0.895231991300 -2.034333470500
H   2.080212293700  0.316942604600  2.399647830500
H   3.059577475900 -1.067591329900  1.831075143600
H   1.331839259100 -1.294245997800  2.232856804000
H   2.639325375700  0.624914876400 -1.433247879200
H   3.791948301300  0.121503669900 -0.176691019800
H   3.634860686400  2.648806820000 -0.337382129600
H   3.100472607000  2.079119336300  1.258326682500
H  -0.639535666600  2.412074418900  0.136788395500
H  -0.813801783400 -0.631153008200  1.659729105300
H  -1.762550956800  0.422697984100  0.570159987400
H  -1.927556629600 -2.024919302000 -0.015536295300
H   0.255805045800 -2.692769333700  0.822723691700
H   1.362853060600 -1.193626492700 -1.607895470700
H   3.629507175700 -1.884865252100 -0.914711581500
H   2.987013911200 -2.774318405600  0.472668066900
H   2.495369974500 -3.369557868100 -2.504515535100
H   3.499461068600 -4.339234287900 -1.392919540900
H   0.105089333900 -3.162475626700 -2.181740472800
H  -1.987833739300 -4.094971309400 -1.543253762300
H  -1.396108662300 -4.617505415000  0.052697258600
H  -1.230731756600 -6.179425802700 -2.469849019700
H  -0.666556934900 -6.666469094900 -0.857965331400
H   0.169817106900 -4.801930396100 -3.943756957900
H   1.945860552400 -4.807919534800 -3.735014347800
H   1.758292344500 -6.880228508200 -5.016802885500
H   0.168833363000 -7.263546084700 -4.303765172400
H   1.770697517100 -4.335407258400  1.106653282300
H   0.633500058100 -5.648103525400  0.711631624500
H   2.363321102200 -5.840688212800  0.336789230700
H  -0.601130144500  0.155539861800 -2.075170805500
