56
exact QM-native source /Users/yazan/totah-lab/analysis/mettl7-phase2/execution-unit-05O/qm-native-minima/MIN01/trajectory-002.xyz
C   2.198200334000 -0.508936864700  1.756311394400
C   1.732727010200 -0.218988402000  0.306512935400
C   2.784958258600  0.647999089900 -0.430304188000
C   2.847152751900  2.095508215300  0.054399111800
C   1.488311811000  2.777520682900 -0.027740528400
O   1.359991403400  3.984236886800 -0.213802751700
C   0.326874830400  1.892329528700  0.196824321900
C   0.406154213900  0.548636240100  0.394143702100
C  -0.811145912900 -0.263496021000  0.743198609500
C  -1.009559171200 -1.405184301500 -0.268920204800
C   0.230705748600 -2.326294942300 -0.209838491700
C   1.541935313500 -1.553759817600 -0.509136361700
C   2.767687976800 -2.487731794900 -0.437778931000
C   2.628477138000 -3.722218192900 -1.345324799900
C   1.343177689100 -4.498494635200 -1.019142871200
C   0.140337145900 -3.533815765700 -1.141907408700
C  -1.099740138600 -4.443923991700 -1.070368233900
C  -0.619346364000 -5.796184967500 -1.663432169200
C   0.885266866300 -5.603419835600 -2.018049943700
C   1.091940399300 -5.313733902900 -3.524686800000
C   1.219829155900 -6.716924077500 -4.114926582200
C   1.818095994800 -7.526974796900 -2.968019623000
O   2.370744707000 -8.598859624000 -2.999437632000
O   1.625257593300 -6.833793745100 -1.800564633400
C   1.466345856000 -5.132733445200  0.382956474300
S  -1.449890692600 -0.785930330500 -1.956665761300
H   2.220610625000  0.419856846000  2.359210874000
H   3.216539056400 -0.943544420200  1.766021343200
H   1.524276471900 -1.221327121300  2.272119067600
H   2.528164076500  0.650865306800 -1.512859089500
H   3.784851804900  0.175534170100 -0.349614860200
H   3.575475286600  2.700707374100 -0.519985732300
H   3.172317430100  2.143580435100  1.118106531000
H  -0.648430019700  2.402765294500  0.253100149800
H  -0.644121948800 -0.734224090100  1.736515872600
H  -1.714227139700  0.372884011300  0.823319976000
H  -1.916734301000 -1.987368539200 -0.011490891100
H   0.272644875000 -2.694742567400  0.841166403700
H   1.458017687000 -1.243465476500 -1.576074572100
H   3.680381156800 -1.928290075900 -0.726848383300
H   2.930466283000 -2.815154980300  0.608988773700
H   2.602195027800 -3.374453210100 -2.399218282300
H   3.519717514000 -4.376799446000 -1.243068604500
H   0.172314297100 -3.113495417900 -2.172712286400
H  -1.950504797500 -4.011707931800 -1.632449732900
H  -1.437926015700 -4.570951795400 -0.020744561900
H  -1.203657557700 -6.105664997000 -2.552479791000
H  -0.700968858500 -6.619634311500 -0.928534232800
H   0.266970132200 -4.714109317900 -3.952896042500
H   2.035074449700 -4.756506582700 -3.686180919000
H   1.854384710000 -6.797999624600 -5.016710776200
H   0.235278324700 -7.166739193000 -4.365690905700
H   1.704517315800 -4.379265355200  1.156602326200
H   0.538756732600 -5.646063064500  0.699994973800
H   2.273430286100 -5.889472419500  0.379617644100
H  -0.348514851100 -0.006619821200 -2.134203000700
