56
exact QM-native source /Users/yazan/totah-lab/analysis/mettl7-phase2/execution-unit-05O/qm-native-minima/MIN01/trajectory-007.xyz
C   2.085976381100 -0.576758326300  1.773447696100
C   1.706878268500 -0.245839920200  0.307326691300
C   2.815871447000  0.614085601700 -0.350572275000
C   2.868719492200  2.055678640000  0.153923099600
C   1.528882926400  2.759055248100 -0.008246242800
O   1.428696786600  3.969184192200 -0.189710009900
C   0.343339382400  1.888458364700  0.133887696300
C   0.394668716800  0.541652776600  0.332359649300
C  -0.859925909600 -0.233748901400  0.633550677100
C  -1.025153767300 -1.443140491400 -0.296576182400
C   0.224584194100 -2.341513511800 -0.221156793100
C   1.516321376200 -1.552361750000 -0.548503135700
C   2.758985443400 -2.466969712200 -0.534476169300
C   2.604467917300 -3.709465135300 -1.427222606400
C   1.348742918600 -4.506836119900 -1.044016918100
C   0.128927253600 -3.562237745300 -1.136585264700
C  -1.095074232600 -4.489528691200 -1.017668179600
C  -0.614788477600 -5.838841340500 -1.616741719500
C   0.876332260200 -5.629484462900 -2.016736000800
C   1.035595293100 -5.355205610900 -3.532059480000
C   1.168235941000 -6.763280790600 -4.109315441000
C   1.811121694700 -7.550428195800 -2.970763533800
O   2.380027289500 -8.613695385600 -3.005661893800
O   1.638987229700 -6.847225953700 -1.806105076800
C   1.529792015600 -5.123988814000  0.358970381400
S  -1.478221706700 -0.907249402900 -2.010587720600
H   2.100285703000  0.339943430100  2.395031654500
H   3.091465798300 -1.037313501300  1.828560462000
H   1.367854464300 -1.279437742900  2.239987132100
H   2.629158493600  0.630233232200 -1.447006743200
H   3.801232391300  0.127096035200 -0.208257563100
H   3.642693684500  2.654638501700 -0.364616290200
H   3.123903321400  2.087058063400  1.237144148800
H  -0.625755513300  2.414314921100  0.138906129900
H  -0.797778261500 -0.617604684500  1.677007184500
H  -1.746445774000  0.427617740900  0.579183917000
H  -1.912037334900 -2.027479550700  0.020550076800
H   0.273725058100 -2.698254552300  0.833911503300
H   1.383538225800 -1.204983313900 -1.599812117100
H   3.648995080100 -1.895644464000 -0.865401468500
H   2.973124672600 -2.786022558900  0.505732776600
H   2.524315082000 -3.369217355300 -2.480773787900
H   3.512895996300 -4.344906964800 -1.360768891000
H   0.125675339400 -3.152068185000 -2.172001214800
H  -1.972502008500 -4.076461251300 -1.552906750600
H  -1.395397630800 -4.613735123700  0.043783711200
H  -1.220854934400 -6.160260621300 -2.486818221800
H  -0.665125376800 -6.659313072000 -0.875690972000
H   0.189318267400 -4.773401360800 -3.942977988600
H   1.964522758400 -4.785232030100 -3.727484033900
H   1.777853215300 -6.845796530900 -5.028005306300
H   0.183906027100 -7.230966413800 -4.326167338300
H   1.772750974900 -4.357350891000  1.118087720500
H   0.624098370700 -5.655243940400  0.708401360100
H   2.353570401300 -5.862220142000  0.338689190400
H  -0.581733540800  0.118780194000 -2.079673676600
