56
exact QM-native source /Users/yazan/totah-lab/analysis/mettl7-phase2/execution-unit-05O/qm-native-minima/MIN01/trajectory-010.xyz
C   2.054807138700 -0.598537038900  1.773812600200
C   1.687818652500 -0.254196405700  0.307959472400
C   2.805841340200  0.607227192400 -0.332067539200
C   2.851981171300  2.048526405200  0.174016523200
C   1.514239024400  2.752544878500 -0.000909033000
O   1.417819113000  3.962285529300 -0.186734712800
C   0.325758291300  1.884538223200  0.133792330900
C   0.377634876900  0.536967824700  0.328539528400
C  -0.879786799200 -0.238252598500  0.617936975800
C  -1.038575574300 -1.441509261500 -0.320454431000
C   0.208152170100 -2.342849442500 -0.235689189000
C   1.498757330200 -1.551850383400 -0.561906673100
C   2.746822875600 -2.459531423500 -0.566719521000
C   2.584992808800 -3.706049629700 -1.452615723100
C   1.336743110700 -4.506214692400 -1.052607517200
C   0.111770297900 -3.567999989100 -1.144445307800
C  -1.106655056100 -4.500976686900 -1.010521403700
C  -0.623931513700 -5.852447045300 -1.602448379800
C   0.864454228500 -5.640626971900 -2.011267157000
C   1.016154475500 -5.381643995700 -3.530060767100
C   1.150318283200 -6.795205893800 -4.093329702300
C   1.802022706200 -7.567687631800 -2.949775588400
O   2.374650953800 -8.629167509700 -2.977348573900
O   1.633337412300 -6.852985199800 -1.791558588300
C   1.530971953600 -5.108348910700  0.355082942900
S  -1.474589050900 -0.895581581300 -2.035820403100
H   2.078131226100  0.314851553600  2.400028281500
H   3.054235161600 -1.071990896500  1.831301175500
H   1.326048322000 -1.294590491800  2.233639208800
H   2.638384336400  0.623498704600 -1.431557778000
H   3.788704178200  0.120416797400 -0.172800408300
H   3.631675595800  2.647794796700 -0.335482108100
H   3.095764178800  2.078885262700  1.260050840900
H  -0.643095652000  2.411045541700  0.134373194500
H  -0.818298213300 -0.632484286600  1.658163429000
H  -1.766216398200  0.422841334200  0.569036289600
H  -1.931512841400 -2.024620915200 -0.017131863700
H   0.251701940800 -2.692538070900  0.821932908100
H   1.358640604400 -1.191921020700 -1.608021884800
H   3.625012767400 -1.883102913000 -0.919703148000
H   2.986596103600 -2.772170166800  0.469880899400
H   2.490784488100 -3.369568505200 -2.506214948700
H   3.496180425000 -4.338414163500 -1.395061600200
H   0.100795520600 -3.163925176800 -2.182211476000
H  -1.991076646700 -4.097865248500 -1.541843505600
H  -1.397962372700 -4.618517520800  0.054218699700
H  -1.232793479100 -6.181987678900 -2.467509738300
H  -0.668049492900 -6.667946761800 -0.855528485000
H   0.166666848400 -4.806231908700 -3.943399563800
H   1.942774345600 -4.811417781400 -3.735205388900
H   1.755311109600 -6.885374912100 -5.014365415000
H   0.166449979100 -7.268508540900 -4.299868519600
H   1.767501254800 -4.332014836600  1.106336355600
H   0.633265300900 -5.647741162000  0.712587446100
H   2.363515590100 -5.836814493500  0.338160338000
H  -0.606826323800  0.156828666700 -2.076948588700
