56
QM-native bounded normal-mode perturbation seed=5102 index=3
C   2.064349358076 -0.842221896401  1.119581767524
C   1.711844329547  0.306787508359  0.148050179444
C   2.997942566564  0.720935161719 -0.632519659594
C   4.050979746560  1.472747600257  0.174637171665
C   3.419079386306  2.678349665627  0.836398611078
O   4.076987915386  3.661199571397  1.158385244077
C   2.005004203324  2.564947545015  1.238999547363
C   1.225915938061  1.478454473486  0.989547886877
C  -0.156955114537  1.354143854318  1.564185157928
C  -1.202639069406  1.040618916764  0.469571848279
C  -0.772693872082 -0.263789293667 -0.225533294033
C   0.613701249869 -0.173911757860 -0.862425158269
C   0.984355313757 -1.436827075552 -1.670684850199
C  -0.086066431382 -1.838644500293 -2.724607690452
C  -1.477168832411 -2.000377731505 -2.034185674353
C  -1.800046162951 -0.701543641881 -1.268854568873
C  -3.280310885409 -0.888412915413 -0.883342106201
C  -3.865839651869 -1.801017894560 -2.001967488602
C  -2.738248888470 -2.157211701146 -2.942742194742
C  -2.737079948439 -1.329504443335 -4.213101461233
C  -3.581796967877 -2.143112766137 -5.168166150505
C  -3.391491018633 -3.582389061861 -4.660487429347
O  -3.607988738594 -4.621281751926 -5.231449130593
O  -2.843455246955 -3.543621224650 -3.397335012338
C  -1.417496312948 -3.238901711539 -1.051068237761
S  -1.471833759286  2.355594835485 -0.709429679342
H   2.781318748381 -0.469027845521  1.877376687241
H   2.574191856169 -1.656390699013  0.566681475359
H   1.202949573507 -1.280630989801  1.663584392855
H   2.687284167219  1.366500115482 -1.483615033764
H   3.449226224355 -0.188885932217 -1.077434078859
H   4.918277789231  1.794004850366 -0.435248136533
H   4.460137339965  0.843586255248  0.998267066932
H   1.619493377289  3.433511617471  1.799810523139
H  -0.197080684241  0.525072455125  2.308020240042
H  -0.407000629876  2.285098471399  2.112438055949
H  -2.181154209597  0.836733657915  0.951548745468
H  -0.749648111281 -1.015308652223  0.597924425978
H   0.535365264867  0.633887641207 -1.627471085109
H   1.921910801680 -1.197229754460 -2.216030387545
H   1.225348032851 -2.305326499377 -1.021089789736
H  -0.107311700497 -1.052103182770 -3.510067086277
H   0.223572403455 -2.782583495812 -3.222577116786
H  -1.804652881870  0.122670788799 -2.024510992437
H  -3.783226379740  0.101308697616 -0.927373591437
H  -3.456303740605 -1.295950674498  0.138612138207
H  -4.721860753983 -1.315370541632 -2.513858093723
H  -4.239982837688 -2.761275180193 -1.597789732628
H  -3.145980838443 -0.316775344637 -4.033988860089
H  -1.696387725614 -1.217118249692 -4.578154860585
H  -3.371502013225 -2.036511214008 -6.248354824803
H  -4.652757953638 -1.885697265363 -5.014250126402
H  -0.573968569435 -3.134152768064 -0.341091012386
H  -2.334812992948 -3.442150042223 -0.460180372630
H  -1.215853021997 -4.138799907526 -1.664725134766
H  -1.524322630075  3.370159110472  0.215675021471
