56
QM-native bounded normal-mode perturbation seed=5102 index=1
C   2.083994882642 -0.855056670518  1.133127885735
C   1.724758576273  0.290146010558  0.143475320489
C   2.979115636927  0.714519729607 -0.652217512567
C   4.019738081567  1.465133470661  0.170723551374
C   3.426978370695  2.678783634241  0.863997694467
O   4.088113380212  3.676280405056  1.138932479751
C   2.010294504285  2.558109137938  1.245705257870
C   1.232335938400  1.473603756022  0.975393981869
C  -0.152831163853  1.362128048626  1.564288030608
C  -1.216502488210  1.005980402227  0.504614876975
C  -0.802549574959 -0.289572178546 -0.228165111489
C   0.607692063631 -0.158680306175 -0.865790554743
C   0.988097220954 -1.420104157936 -1.667298302871
C  -0.084373297838 -1.829940344724 -2.694112217942
C  -1.455697188148 -2.011955315561 -2.017139827503
C  -1.815578383485 -0.700547483222 -1.297501931078
C  -3.292375113616 -0.866412124410 -0.895834559779
C  -3.881027841573 -1.798788347238 -1.988385266290
C  -2.707872451400 -2.161007614124 -2.935852419571
C  -2.726844047875 -1.321873321539 -4.230934469436
C  -3.613388674897 -2.150877557202 -5.153680965838
C  -3.377977579111 -3.580081078891 -4.668301420081
O  -3.607970493321 -4.621335670281 -5.231551127005
O  -2.828199620563 -3.529283744041 -3.410258765531
C  -1.406431872253 -3.226232610487 -1.058812683474
S  -1.472449758283  2.368073694658 -0.722964316142
H   2.786895512078 -0.497117672982  1.910597652807
H   2.567639842535 -1.699987198070  0.605108179896
H   1.190460563991 -1.250631789174  1.655206405289
H   2.654596301268  1.364727225793 -1.493672944373
H   3.448415595795 -0.180807923941 -1.107209299373
H   4.859857064001  1.813017912361 -0.462256581212
H   4.470301894103  0.811743742213  0.951339797411
H   1.628371859065  3.380645876352  1.874282483766
H  -0.169157504824  0.563312263382  2.341998767382
H  -0.409025871018  2.308357145627  2.082806313646
H  -2.193066590941  0.836841418518  1.001937045272
H  -0.784385616946 -1.078642463544  0.558004014966
H   0.518906014586  0.678266976050 -1.595418934680
H   1.948608093102 -1.254186676080 -2.194710682707
H   1.167288936543 -2.264314127824 -0.970772920119
H  -0.148633446506 -1.033223965514 -3.464621828565
H   0.222859095166 -2.760422906524 -3.216784556069
H  -1.780828910289  0.097229881285 -2.076111268874
H  -3.804113037796  0.114651761125 -0.854845642336
H  -3.384905083898 -1.324174242333  0.110872958768
H  -4.720780645780 -1.332956109263 -2.541061902460
H  -4.270248581839 -2.740719311709 -1.557088239839
H  -3.096633098751 -0.293852895371 -4.057751438580
H  -1.706573741049 -1.248754492502 -4.654363512194
H  -3.405015878193 -2.058433744535 -6.235581124966
H  -4.691395796331 -1.924399279563 -5.005879367524
H  -0.597828139253 -3.134498639187 -0.310164300396
H  -2.353127005169 -3.390356985837 -0.509331970209
H  -1.216128772840 -4.138792623059 -1.655163898379
H  -1.540006464150  3.377356420899  0.203914745744
