56
QM-native bounded normal-mode perturbation seed=5102 index=5
C   2.068975018063 -0.870078635330  1.142382983327
C   1.730730672060  0.276354669470  0.140221554919
C   2.993640225952  0.709231201468 -0.661825460059
C   4.018459422140  1.471574631351  0.180269794492
C   3.419540304940  2.701101092310  0.872486331163
O   4.094605670546  3.683843340775  1.169345378763
C   1.996629525560  2.566875135178  1.248700974174
C   1.236752104698  1.480405458126  0.933079648395
C  -0.139793981610  1.363775881983  1.521968704677
C  -1.216851218666  1.001515577810  0.478027801735
C  -0.781770573483 -0.298186361673 -0.241469899681
C   0.610750321220 -0.147959690510 -0.863712218337
C   0.969214911590 -1.400664151339 -1.662198377739
C  -0.086428724846 -1.842800446033 -2.692464482334
C  -1.458433497676 -2.027368323780 -2.021303119382
C  -1.806203801017 -0.698434440988 -1.309955385867
C  -3.291511779936 -0.861128732521 -0.861474362385
C  -3.887447231780 -1.796368577441 -1.959220432340
C  -2.724156943985 -2.164577393088 -2.923181979831
C  -2.734829678932 -1.313099483088 -4.220380845712
C  -3.574509840183 -2.145994548970 -5.183618443030
C  -3.381810002556 -3.579193626169 -4.673112646236
O  -3.614666611064 -4.625123029107 -5.226748493116
O  -2.856744407438 -3.531552307955 -3.403951721692
C  -1.399961459168 -3.241742339474 -1.052278377185
S  -1.465129318230  2.360604863696 -0.708129298920
H   2.773037072516 -0.481486309588  1.904981865622
H   2.579793974132 -1.706411728506  0.625240717708
H   1.192892033581 -1.280434283610  1.682636812606
H   2.656699131379  1.348284140309 -1.507131425239
H   3.472961223793 -0.184450294368 -1.111076438475
H   4.923714826979  1.767578152166 -0.390599813750
H   4.375642739275  0.809397941979  1.005690148549
H   1.527550861026  3.445905509004  1.738992217008
H  -0.119254014512  0.548032479450  2.282110312412
H  -0.377376353158  2.295510614893  2.074724861052
H  -2.192298954289  0.817738556630  0.971903414936
H  -0.759908910653 -1.089926071182  0.541031174303
H   0.523556430590  0.695526512250 -1.586134600728
H   1.903938404221 -1.196584433399 -2.223175612560
H   1.210312264923 -2.235219463733 -0.971050271555
H  -0.154331526155 -1.033157608498 -3.449326789765
H   0.258503198806 -2.754664297263 -3.225500008318
H  -1.780016028113  0.100588692697 -2.087501560880
H  -3.816584228687  0.112624454079 -0.805064970237
H  -3.352652600407 -1.327739001417  0.144193152403
H  -4.719844224913 -1.321718270589 -2.516137003472
H  -4.287783529438 -2.739187288944 -1.539139079355
H  -3.129094678316 -0.292435855785 -4.054739136227
H  -1.701810909790 -1.215981160189 -4.608958609335
H  -3.311029299034 -2.060572357772 -6.255140885815
H  -4.657325143202 -1.908518785824 -5.094200286287
H  -0.571790500033 -3.186019874067 -0.319852203290
H  -2.341969212598 -3.401633853324 -0.493324173497
H  -1.244027399507 -4.146490188503 -1.672409867795
H  -1.612444858864  3.335132668165  0.235001474308
