56
QM-native bounded normal-mode perturbation seed=5102 index=2
C   2.081462379857 -0.867134753407  1.138756954341
C   1.720495908359  0.283290867346  0.149265340736
C   2.984832569250  0.706444326229 -0.674975522276
C   4.032479797475  1.464635467876  0.157025582988
C   3.435608050776  2.677031874940  0.874401137278
O   4.093662707771  3.681098882177  1.139299878454
C   2.006586736984  2.559153926896  1.256319981542
C   1.212196773910  1.490537643870  0.971132519860
C  -0.170799676587  1.370244458132  1.555742704951
C  -1.204130317776  0.980014505200  0.532134594433
C  -0.781495995867 -0.275006827738 -0.226078653840
C   0.599473811483 -0.153905529666 -0.869567251062
C   0.975605483605 -1.417834327105 -1.665972284606
C  -0.076080766198 -1.838779424682 -2.711148580466
C  -1.454028570177 -2.016319509300 -2.024244472564
C  -1.816567928931 -0.673282988326 -1.287036479059
C  -3.304128652574 -0.856841333886 -0.893279765305
C  -3.884385392348 -1.803327226788 -1.983904289661
C  -2.705966029759 -2.164227255837 -2.934711740307
C  -2.721798241183 -1.316801230810 -4.234444467273
C  -3.606140201776 -2.148642547198 -5.160459302387
C  -3.377421522587 -3.579471008644 -4.667920124228
O  -3.608398566812 -4.621678117333 -5.229536666847
O  -2.836390171857 -3.531512795626 -3.408104630309
C  -1.406938953276 -3.246176167865 -1.055118840213
S  -1.468684125563  2.369498856243 -0.726117996381
H   2.786891006874 -0.506560874131  1.912984647813
H   2.564331521356 -1.714037184616  0.613008610566
H   1.192585958348 -1.264261228817  1.668513823463
H   2.640581390668  1.356174003436 -1.508987634834
H   3.446616381507 -0.188449912475 -1.139129028236
H   4.912387860752  1.797035303454 -0.429679306151
H   4.428468304562  0.794678868589  0.954805435468
H   1.599396084506  3.429104388412  1.801468492289
H  -0.133795716300  0.548619173121  2.311547478315
H  -0.473056243800  2.284919117902  2.104278906280
H  -2.175309727815  0.775787492457  1.026714957669
H  -0.735300254196 -1.083316177591  0.540110051913
H   0.529330268696  0.677943214738 -1.607503287577
H   1.921975289239 -1.196720307497 -2.200130910361
H   1.204996397913 -2.260650853179 -0.981881571223
H  -0.136890194137 -1.020978032492 -3.460445805001
H   0.245788713273 -2.752491877432 -3.255202500175
H  -1.783982827006  0.130712304310 -2.058102374282
H  -3.842379874448  0.111215387095 -0.862999641290
H  -3.394910317900 -1.308290337009  0.116806371437
H  -4.704214486088 -1.316821928574 -2.549396484453
H  -4.302948912296 -2.736300097618 -1.559611688085
H  -3.099246946634 -0.293063617323 -4.050901952081
H  -1.701357657632 -1.230630201336 -4.655197253475
H  -3.388381946541 -2.069395562590 -6.241627452440
H  -4.684520642163 -1.917163205903 -5.024970687562
H  -0.589757027253 -3.131309010036 -0.317913643246
H  -2.344309214733 -3.384059477737 -0.481914819420
H  -1.224901448513 -4.179140855496 -1.621930511625
H  -1.832663125211  3.372371366632  0.135528896141
