56
QM-native bounded normal-mode perturbation seed=5102 index=6
C   2.085529025273 -0.875014265606  1.147267395198
C   1.733461479683  0.295122292507  0.150699525413
C   2.975539727668  0.710551028778 -0.671891369631
C   4.026326816162  1.446919979782  0.152025429973
C   3.435738504586  2.673468042645  0.870519362150
O   4.079371695993  3.684858757293  1.137334466041
C   2.013522605637  2.583158509190  1.257251267651
C   1.237815692366  1.493572092303  0.975840763023
C  -0.157166528545  1.354395402484  1.567859532554
C  -1.277941872373  0.988390850186  0.545583720853
C  -0.800572187196 -0.278357384498 -0.227108355099
C   0.634003011993 -0.154061474092 -0.878729551190
C   0.993848200490 -1.439301681604 -1.682541785265
C  -0.088179012381 -1.817857844652 -2.701141231420
C  -1.445236131486 -2.007428497686 -2.017217711931
C  -1.817974457430 -0.698871321209 -1.289300426319
C  -3.304637618107 -0.860653039689 -0.896540630571
C  -3.874289208822 -1.804555318154 -1.996322555144
C  -2.695047823670 -2.159809442492 -2.937311096196
C  -2.726990694551 -1.315249112896 -4.226417910393
C  -3.618366107670 -2.166083828359 -5.129669280177
C  -3.375178674461 -3.579032803382 -4.672032371070
O  -3.606363921403 -4.622540768589 -5.231205451284
O  -2.837387296898 -3.525050613626 -3.432143205648
C  -1.400164677259 -3.230344102243 -1.058764289970
S  -1.470611441401  2.374784308309 -0.734586613746
H   2.801055691358 -0.524755033720  1.917319120969
H   2.570330880580 -1.707390865936  0.599527031121
H   1.203525378696 -1.285507975698  1.677960385519
H   2.642450337960  1.349847999192 -1.518029154558
H   3.429006029621 -0.196860663148 -1.120004438806
H   4.880493786658  1.786569649386 -0.466308476698
H   4.451465555262  0.761118936932  0.919597461503
H   1.655772187888  3.397115966462  1.915141220554
H  -0.132281042869  0.564914270139  2.356759089212
H  -0.396088435409  2.300603875491  2.095797093934
H  -2.254637814817  0.815294493252  1.043655765455
H  -0.742532668735 -1.084794119182  0.540581522153
H   0.568421824000  0.666692598714 -1.628582291679
H   1.955907684061 -1.306425113405 -2.218403810259
H   1.142798121604 -2.301857060260 -1.000307139575
H  -0.132398723280 -1.064527711469 -3.517779227952
H   0.206401724187 -2.784637726933 -3.167636708785
H  -1.781432974499  0.098839952732 -2.068125135334
H  -3.824166753532  0.116690131195 -0.858997776912
H  -3.401536467387 -1.321023184357  0.108863979040
H  -4.696344736354 -1.335199346538 -2.572201882130
H  -4.283463504507 -2.741631512712 -1.572404264767
H  -3.063483867198 -0.272049074913 -4.073039131759
H  -1.715933671887 -1.284429470532 -4.679229405221
H  -3.373566183337 -2.090861585495 -6.205033862226
H  -4.706620515322 -1.963862264627 -5.029496482735
H  -0.615558374990 -3.154708469497 -0.282008603960
H  -2.367323327309 -3.357069703550 -0.534738608428
H  -1.230958043901 -4.156174654772 -1.640744307923
H  -1.559371545524  3.383025251143  0.188710111447
