56
QM-native bounded normal-mode perturbation seed=5102 index=4
C   2.069564582503 -0.854364415491  1.128903493328
C   1.720286837903  0.289253915437  0.143323165588
C   2.990868900049  0.709518563665 -0.653019272377
C   4.038880282093  1.468963621133  0.168505954789
C   3.423260665066  2.689338228654  0.866292595973
O   4.089367948368  3.679397213612  1.155001099252
C   1.996223743941  2.569365891365  1.250767056483
C   1.233333007600  1.476108473101  0.970072513723
C  -0.150616940391  1.359908920860  1.535143776698
C  -1.219736746883  0.978807616417  0.524871775732
C  -0.769399894301 -0.285128724538 -0.232370384824
C   0.605839780710 -0.151263863087 -0.876408862957
C   0.969121601987 -1.426644511420 -1.662291316982
C  -0.080348067654 -1.848221690666 -2.709367683486
C  -1.453523198367 -2.021509899276 -2.031637950860
C  -1.806103852443 -0.675245540145 -1.296979803988
C  -3.303842464835 -0.861358981367 -0.878177667440
C  -3.882810087326 -1.808409737926 -1.975069844653
C  -2.713520695253 -2.157317716782 -2.927617369703
C  -2.733539055625 -1.310233506521 -4.223744496266
C  -3.590346734260 -2.155358417609 -5.163535727688
C  -3.374757285671 -3.579972096624 -4.670968741342
O  -3.614395323405 -4.620866829525 -5.233271336882
O  -2.852451271324 -3.523216731991 -3.409129634876
C  -1.403402112447 -3.245709686059 -1.055166487373
S  -1.468904513835  2.375169669484 -0.722667222069
H   2.776999593579 -0.463538895079  1.887422462262
H   2.581456185818 -1.686561003006  0.606471441696
H   1.200882437034 -1.271894530296  1.676672780669
H   2.657393994202  1.358108813628 -1.492342337735
H   3.444401709994 -0.191858895214 -1.112772438306
H   4.918897062397  1.787762865607 -0.425363504895
H   4.432486331415  0.816692742794  0.982068321159
H   1.545552856677  3.463392346957  1.732413384869
H  -0.126662131508  0.561824874153  2.315383114014
H  -0.415693926125  2.294710112348  2.067454035141
H  -2.186071034947  0.771405209523  1.028315528195
H  -0.714524152371 -1.094030009135  0.532306025512
H   0.528932375225  0.668124269602 -1.626762285185
H   1.889836558606 -1.178424695199 -2.234210362700
H   1.247558367000 -2.266918048272 -0.988983494446
H  -0.134919043640 -1.010732189798 -3.439077686059
H   0.254170764357 -2.746654874250 -3.272704138888
H  -1.772151893145  0.134604399475 -2.062642645898
H  -3.856275610022  0.098838797268 -0.837795362854
H  -3.374955475800 -1.320250928618  0.130174247346
H  -4.691360900817 -1.313267657299 -2.550031117375
H  -4.312060296343 -2.745771911731 -1.569737918329
H  -3.100860019433 -0.278615321405 -4.065724720350
H  -1.706902324053 -1.243996482112 -4.633324425484
H  -3.331687833762 -2.075891081782 -6.236239268155
H  -4.677077637258 -1.937474253008 -5.074010817133
H  -0.587104197345 -3.153850941420 -0.314287665709
H  -2.347635896010 -3.386332818510 -0.494766984447
H  -1.232678477596 -4.171460872974 -1.637298554316
H  -1.604236290822  3.452525816003  0.117781753699
