56
exact QM-native source /Users/yazan/totah-lab/analysis/mettl7-phase2/execution-unit-05O/qm-native-minima/MIN02/trajectory-003.xyz
C   2.188398629900 -0.873196863400  1.143460690400
C   1.782239706000  0.267920316600  0.175235514800
C   3.006405322700  0.730709813200 -0.653569944300
C   4.058796892800  1.482441072100  0.159939570300
C   3.464236295700  2.670687151000  0.904346842600
O   4.121810681100  3.668657076900  1.187998495100
C   2.055020114800  2.520487573200  1.315533152800
C   1.283727490700  1.436793919600  1.029283640400
C  -0.095613386400  1.308051138900  1.616151220800
C  -1.150385475800  0.967758702200  0.558501810100
C  -0.749307677500 -0.317551086100 -0.180583023700
C   0.658257375700 -0.198697921200 -0.821034249800
C   1.028963112600 -1.482716700700 -1.593319874200
C  -0.035549963400 -1.896633945400 -2.623995415400
C  -1.411687902700 -2.053888860800 -1.958705753600
C  -1.763333088800 -0.725301272900 -1.250989436900
C  -3.246402505700 -0.865045483200 -0.862501174400
C  -3.840654267200 -1.804033471900 -1.946659497800
C  -2.657679361400 -2.188084403000 -2.885643614200
C  -2.655710600400 -1.349160926600 -4.186800537000
C  -3.548027059300 -2.174917271000 -5.111646742900
C  -3.334792142400 -3.604112816900 -4.620539540400
O  -3.575923751300 -4.646206546600 -5.178323483100
O  -2.800588576200 -3.553457847900 -3.358514071900
C  -1.391057576500 -3.260104098000 -0.995992559900
S  -1.372514474000  2.345820177000 -0.666728724900
H   2.887267889800 -0.503729843000  1.918963215000
H   2.691357872000 -1.696645623100  0.600107244400
H   1.311931571100 -1.302552165200  1.668492091800
H   2.635100562800  1.401725036600 -1.458304280600
H   3.469312628200 -0.142197275500 -1.156424036800
H   4.891681342800  1.850758788200 -0.470687241000
H   4.520739644600  0.817608461100  0.924292869100
H   1.656579428800  3.342447043800  1.933097401900
H  -0.088683500000  0.464843304500  2.346055491700
H  -0.366566269200  2.217498707500  2.188206731500
H  -2.133493638400  0.814093263000  1.047082282200
H  -0.723177039500 -1.111716637300  0.600445050600
H   0.575948241200  0.617789454700 -1.574708742200
H   1.996163699200 -1.337329873800 -2.114694470500
H   1.191806574900 -2.315214371700 -0.879422958600
H  -0.084447574100 -1.109291823500 -3.405022021200
H   0.266365660000 -2.836993115500 -3.131827186000
H  -1.709525144400  0.062666770700 -2.037491709300
H  -3.746075712000  0.122615030600 -0.828957125300
H  -3.347639429000 -1.314420141900  0.147307560800
H  -4.665004556700 -1.331141898900 -2.516282551200
H  -4.252017452400 -2.732617296700 -1.506871616600
H  -3.009709898800 -0.314715944400 -4.018571004800
H  -1.634120086100 -1.293089076700 -4.610100547400
H  -3.316172227400 -2.098471239400 -6.189960238900
H  -4.626429815000 -1.936204496000 -4.990384877900
H  -0.585840644800 -3.173685550900 -0.243077104000
H  -2.343715959500 -3.380075945600 -0.445912000500
H  -1.226543107500 -4.191270670900 -1.570240100300
H  -1.693002631900  3.284857223700  0.266107808000
