56
exact QM-native source /Users/yazan/totah-lab/analysis/mettl7-phase2/execution-unit-05O/qm-native-minima/MIN02/trajectory-007.xyz
C   2.127216934500 -0.866538637800  1.150273054400
C   1.758937226300  0.273487703500  0.166180993500
C   3.005857786400  0.703903533700 -0.646563842600
C   4.054545020500  1.452479884700  0.174871411200
C   3.464607048000  2.661840294100  0.887610797700
O   4.132122125900  3.654029417500  1.168292467700
C   2.046435731300  2.536718862400  1.275841181000
C   1.263841635400  1.458833974000  0.997739550100
C  -0.119581158000  1.350865698500  1.580524919000
C  -1.181156317700  0.977636899700  0.541773706400
C  -0.768496889400 -0.305983533100 -0.198083568200
C   0.637774793600 -0.175714450200 -0.839882342700
C   1.014574608600 -1.444209187900 -1.634328539400
C  -0.053700573400 -1.858689651500 -2.660257241900
C  -1.422154068500 -2.038882888800 -1.986092040900
C  -1.783489884500 -0.719570471300 -1.266500872900
C  -3.262437230100 -0.877817870600 -0.869476626800
C  -3.853933805500 -1.814696534400 -1.956703469400
C  -2.673132279000 -2.180475275500 -2.905599280200
C  -2.688897384800 -1.333905613100 -4.201928666900
C  -3.578692325400 -2.163575817400 -5.125730378700
C  -3.346849227200 -3.593050359100 -4.644288439700
O  -3.581297693500 -4.633520548900 -5.207926297900
O  -2.804652741500 -3.544438325000 -3.385564068700
C  -1.380253753700 -3.251383989600 -1.032360295700
S  -1.441657971100  2.341090862200 -0.694334230200
H   2.825437966900 -0.505073280100  1.930214314200
H   2.618100471200 -1.706299266100  0.620802547700
H   1.236071751000 -1.271036317000  1.669789563000
H   2.660498768000  1.367160571100 -1.469300811700
H   3.465264083400 -0.183475006900 -1.126403868200
H   4.905722252200  1.796396623100 -0.444985420100
H   4.489978423600  0.793282776300  0.959317350900
H   1.650334287200  3.373981872500  1.873896747000
H  -0.118527623500  0.546414197100  2.353089989200
H  -0.386624287700  2.288100361700  2.108825599700
H  -2.151350456600  0.803870118800  1.049321973900
H  -0.740176465500 -1.102024235700  0.580911863500
H   0.552961476000  0.657183804900 -1.574978657700
H   1.974245422500 -1.280510729300 -2.163550360500
H   1.195287589000 -2.283703204900 -0.932668986000
H  -0.118872718900 -1.062720597200 -3.431281773900
H   0.255637900900 -2.789024575200 -3.181930709900
H  -1.743025049800  0.073037439700 -2.049350499400
H  -3.771691372700  0.104442216400 -0.824373158400
H  -3.351517124400 -1.336621140100  0.137241802000
H  -4.686298501200 -1.345746525700 -2.517892962200
H  -4.253572367600 -2.750357283900 -1.521123204000
H  -3.052806293300 -0.304316182000 -4.025266065300
H  -1.670976540900 -1.264418625100 -4.631929430800
H  -3.354975312200 -2.078353469500 -6.205121693200
H  -4.658728689000 -1.937111196600 -4.995819298300
H  -0.572038390000 -3.159173402900 -0.283275480400
H  -2.328233406400 -3.387548545600 -0.477944386700
H  -1.206793129200 -4.176456760000 -1.613802732200
H  -1.704265201100  3.300537971200  0.235909791300
