56
exact QM-native source /Users/yazan/totah-lab/analysis/mettl7-phase2/execution-unit-05O/qm-native-minima/MIN02/trajectory-001.xyz
C   2.215589582600 -0.870795099100  1.139266766900
C   1.788197982400  0.269031472600  0.178900496700
C   2.998741633000  0.749242581400 -0.659818144200
C   4.048939699500  1.511077989500  0.147543942400
C   3.448303990000  2.687402762000  0.906631719300
O   4.097623338600  3.690532622000  1.191397233800
C   2.046402671700  2.516120648200  1.334152984000
C   1.284159309300  1.427732606100  1.044168280200
C  -0.085465125000  1.260409212400  1.641907925400
C  -1.142600234000  0.970321160400  0.571496033100
C  -0.751820083700 -0.323382866200 -0.167079509300
C   0.659063422100 -0.209218832400 -0.807078884200
C   1.029760629400 -1.495305180600 -1.574978462800
C  -0.033366265500 -1.909047102600 -2.607188124300
C  -1.412473326700 -2.059312189000 -1.946661324200
C  -1.761909549100 -0.727685483200 -1.242932195600
C  -3.247235591600 -0.860261646100 -0.860979871500
C  -3.840668032100 -1.799830245900 -1.945043396300
C  -2.655456869900 -2.190625410700 -2.878261502700
C  -2.645491442300 -1.354364737700 -4.181208830900
C  -3.537697264600 -2.178516651400 -5.107566542700
C  -3.332010508700 -3.607457284100 -4.612642406500
O  -3.575748180300 -4.649527459100 -5.169339795300
O  -2.802038894300 -3.556337142300 -3.348836327100
C  -1.399616694700 -3.263377649100 -0.981434683900
S  -1.262153739100  2.339117040300 -0.678350076900
H   2.917486872100 -0.496931735900  1.909959927200
H   2.722346103000 -1.686504687500  0.587774194800
H   1.348618734300 -1.311974811500  1.670135871500
H   2.611058640000  1.419293435600 -1.457634206300
H   3.468076140000 -0.115272664200 -1.171352072800
H   4.870377325800  1.894000305100 -0.489342190500
H   4.527772952200  0.848141854800  0.903135553600
H   1.645818848000  3.326432527200  1.965392102000
H  -0.078288067500  0.398386754400  2.347909097300
H  -0.353362181500  2.155717591800  2.238693570000
H  -2.139663295300  0.844653628100  1.038554007500
H  -0.735339715700 -1.118030831900  0.613594172000
H   0.573710954800  0.603152778600 -1.564352542600
H   1.997818640600 -1.351884941800 -2.095501036700
H   1.191070220100 -2.326351832800 -0.858797548300
H  -0.076895755700 -1.123685323300 -3.390511242800
H   0.266960835800 -2.851770737500 -3.111561839100
H  -1.701135997800  0.058453921000 -2.030439465700
H  -3.743511289100  0.129315208200 -0.832314938300
H  -3.354870855000 -1.306545979400  0.149561857500
H  -4.660882309000 -1.325322723500 -2.519289898500
H  -4.257374709400 -2.725565032900 -1.504315212400
H  -2.995920669900 -0.318140581600 -4.016500806000
H  -1.622201816800 -1.303244966000 -4.600954027300
H  -3.301890259500 -2.105090443400 -6.185243433300
H  -4.615619933700 -1.935401969000 -4.990656941900
H  -0.596501878800 -3.177902959100 -0.226097185900
H  -2.354580681100 -3.378718908800 -0.434307247300
H  -1.236422849300 -4.196516048100 -1.552890458300
H  -1.597127056400  3.306108758500  0.220894765200
