56
exact QM-native source /Users/yazan/totah-lab/analysis/mettl7-phase2/execution-unit-05O/qm-native-minima/MIN02/trajectory-009.xyz
C   2.109527487100 -0.863385845700  1.143965555400
C   1.746598227100  0.277991052900  0.159551974300
C   2.996763855100  0.704952819800 -0.649356248300
C   4.042529228800  1.456364866800  0.173215735500
C   3.451092373400  2.667820072500  0.881246092100
O   4.117461956700  3.661440402500  1.159441776000
C   2.032720378800  2.543303383700  1.269202631400
C   1.251982875200  1.464326280200  0.990249581900
C  -0.132023590500  1.355993088800  1.571525527300
C  -1.191732576900  0.987148513100  0.529345971100
C  -0.779933777900 -0.297535091500 -0.209694185400
C   0.626802905700 -0.167656811500 -0.850012569900
C   1.004478055800 -1.433245613600 -1.648750236200
C  -0.065251155600 -1.847562723900 -2.673327637500
C  -1.432472085100 -2.030197563100 -1.997416473700
C  -1.795102961700 -0.711185545600 -1.277676373900
C  -3.273545886900 -0.871710468600 -0.879490847100
C  -3.864612737000 -1.809698258500 -1.966010485400
C  -2.684086838200 -2.174749355800 -2.915523159700
C  -2.702144563100 -1.329991446600 -4.212939897900
C  -3.591877395100 -2.161976452200 -5.134690066500
C  -3.357731666700 -3.590619695200 -4.651738088400
O  -3.591342505200 -4.632408996200 -5.213259821200
O  -2.814135297700 -3.539569579000 -3.393711918400
C  -1.386892833700 -3.242083677500 -1.043156579700
S  -1.447964672900  2.352658683900 -0.704363016200
H   2.810089958100 -0.504875876200  1.923209302600
H   2.596360971300 -1.705606867600  0.614609364400
H   1.216959834800 -1.263841368900  1.664063137500
H   2.655635825100  1.364724337200 -1.476653366000
H   3.458041488900 -0.184704230900 -1.123153803000
H   4.895774468400  1.797990571700 -0.445037483600
H   4.475422962600  0.799476399200  0.961142137800
H   1.635599438900  3.380661017700  1.866606026100
H  -0.131790983700  0.546843637400  2.339167919200
H  -0.399540481700  2.290107221700  2.104831805400
H  -2.163721391700  0.815007576500  1.034188161900
H  -0.752209146600 -1.092342933100  0.570529323100
H   0.543919086700  0.667850949500 -1.582320121000
H   1.961862742300 -1.264661449900 -2.180611426000
H   1.190311915600 -2.274704219100 -0.950768048400
H  -0.132625866800 -1.050569069800 -3.443105728400
H   0.244242937500 -2.776841078300 -3.196805859400
H  -1.756200158800  0.081505656500 -2.060525926600
H  -3.784903269100  0.109447770200 -0.833947693900
H  -3.360891799500 -1.330576613000  0.127350693700
H  -4.697792345800 -1.341927547200 -2.526963833400
H  -4.262999243300 -2.745578619800 -1.529728125500
H  -3.066995200500 -0.300535378700 -4.037354442100
H  -1.684723377800 -1.260019313300 -4.644009107300
H  -3.369372841800 -2.077857170200 -6.214415548400
H  -4.672065760400 -1.936683569100 -5.003983207700
H  -0.578759827400 -3.147312396700 -0.294301732400
H  -2.334432755100 -3.380722517900 -0.488589700800
H  -1.210970237800 -4.166898678100 -1.624283635700
H  -1.694497971600  3.315462241100  0.226780509200
