56
exact QM-native source /Users/yazan/totah-lab/analysis/mettl7-phase2/execution-unit-05O/qm-native-minima/MIN02/trajectory-011.xyz
C   2.088396606000 -0.857873264900  1.135774004600
C   1.729936826800  0.284423691200  0.150924854800
C   2.983504717700  0.707756189900 -0.655120201000
C   4.027107588900  1.461818714600  0.167912999800
C   3.434189647700  2.676150083800  0.869694390500
O   4.098820225400  3.671990261200  1.144173669500
C   2.015608196300  2.551741980700  1.256595035200
C   1.235343013400  1.471881033700  0.979762723700
C  -0.149574622000  1.364984238600  1.558969229500
C  -1.208226041700  0.996968916200  0.515455863700
C  -0.796352145700 -0.287807329200 -0.222752015000
C   0.611217473700 -0.157713285400 -0.861580170600
C   0.990039494600 -1.420520472200 -1.664312978200
C  -0.080461214600 -1.834438743300 -2.688271573300
C  -1.446883214400 -2.019482751000 -2.011662507800
C  -1.811065822800 -0.701355749800 -1.291138932900
C  -3.289226492100 -0.864075765900 -0.892766048900
C  -3.879369842300 -1.802257247900 -1.979548808400
C  -2.698569106700 -2.166065390000 -2.929210026600
C  -2.718159194500 -1.322038746400 -4.227048495700
C  -3.607464169300 -2.155503533900 -5.147871029100
C  -3.371209937600 -3.583635601200 -4.664402082700
O  -3.603790763800 -4.626042295500 -5.225225281200
O  -2.826915143100 -3.531302789000 -3.406739366400
C  -1.398668794900 -3.231389989100 -1.057521455300
S  -1.464044610100  2.362787112600 -0.718765902900
H   2.791648017200 -0.501787451500  1.913717103600
H   2.570728291800 -1.702764164400  0.606593843000
H   1.194770802900 -1.253831603000  1.657514579900
H   2.646241992900  1.363857003700 -1.486903847900
H   3.445882318200 -0.184459911800 -1.123050782100
H   4.882206433000  1.800861365200 -0.449160211900
H   4.457361373900  0.807441668600  0.959344793200
H   1.617540085200  3.390399667800  1.851483079100
H  -0.151111250400  0.553883213500  2.324644590500
H  -0.416828160600  2.298145477000  2.093900476700
H  -2.180802840500  0.825775704100  1.019644031800
H  -0.769279007700 -1.082220822200  0.557871234300
H   0.530202348500  0.680395278700 -1.591054842000
H   1.945531635800 -1.247501730400 -2.198130704000
H   1.180071303600 -2.263575242100 -0.969402484400
H  -0.149352323200 -1.036348513200 -3.456776579800
H   0.229412454200 -2.762638898900 -3.213446280300
H  -1.772788081700  0.092072512200 -2.073361080000
H  -3.802045961600  0.116282636200 -0.846493268900
H  -3.375549351000 -1.323567275600  0.113871578500
H  -4.712820600400 -1.334843517700 -2.540398368400
H  -4.277179335500 -2.738528542200 -1.543602232700
H  -3.083917885800 -0.292835249200 -4.051838546200
H  -1.701041864200 -1.251338200000 -4.658694383900
H  -3.385637965600 -2.071634625000 -6.227757488400
H  -4.687852562600 -1.931483605900 -5.016673929800
H  -0.591257375100 -3.134540362300 -0.308165199400
H  -2.346244216800 -3.372677518600 -0.503673685100
H  -1.219941836900 -4.155675770900 -1.638632545900
H  -1.694919426900  3.328557185700  0.213262739700
