56
exact QM-native source /Users/yazan/totah-lab/analysis/mettl7-phase2/execution-unit-05O/qm-native-minima/MIN02/trajectory-005.xyz
C   2.146240897300 -0.869400180300  1.150597280800
C   1.768052940800  0.270574486400  0.170108301900
C   3.009430405600  0.708372859500 -0.647276952300
C   4.060668087400  1.454234266300  0.173007094100
C   3.470653522900  2.659148360400  0.893748057200
O   4.139301325000  3.650340400500  1.175107898500
C   2.053588487900  2.532756108000  1.286178806400
C   1.273978152300  1.452939602300  1.005948381000
C  -0.109132311000  1.344806776900  1.588205535000
C  -1.170206549300  0.971691325100  0.549640464600
C  -0.759792574100 -0.310910354600 -0.190252548200
C   0.646195896000 -0.182816910900 -0.832877431300
C   1.021152284300 -1.456697703900 -1.620140888600
C  -0.045427458100 -1.871063878200 -2.647885046300
C  -1.416105579900 -2.045323172600 -1.976522339400
C  -1.775070009000 -0.724096920900 -1.259018882800
C  -3.255210784900 -0.877906762000 -0.864738522200
C  -3.847078898000 -1.814663637800 -1.951862150800
C  -2.665627658900 -2.184167031500 -2.898414177400
C  -2.676927456400 -1.338014011600 -4.194928336700
C  -3.567064552000 -2.165982779900 -5.119913359500
C  -3.339766413800 -3.596122072200 -4.637909025700
O  -3.574918066800 -4.637290803300 -5.199963724800
O  -2.799947370400 -3.547990568800 -3.378180060000
C  -1.379994325000 -3.256955536700 -1.021399096400
S  -1.438200461600  2.341028687900 -0.680822633900
H   2.843581701300 -0.504793060100  1.929777755000
H   2.641202099300 -1.705101213900  0.618568033300
H   1.258505443800 -1.280300172700  1.671227423300
H   2.658255206900  1.375615325000 -1.464184014600
H   3.467391529300 -0.175691957900 -1.134714670900
H   4.908065572200  1.803097040000 -0.449276112000
H   4.501195403600  0.791680251900  0.951752980900
H   1.657310026400  3.368002576600  1.887056990800
H  -0.107261437700  0.535051529400  2.356165385400
H  -0.375967300600  2.278867876000  2.121054592600
H  -2.139783283500  0.798395670800  1.059092146500
H  -0.730384528100 -1.107273367700  0.588571235400
H   0.562103268000  0.645262909900 -1.573529224000
H   1.983736581200 -1.300178259400 -2.146397522800
H   1.194797565000 -2.293552247200 -0.913659296600
H  -0.106059219600 -1.077595929700 -3.421821069300
H   0.262299922100 -2.804206690400 -3.165455219400
H  -1.731009428700  0.067479904000 -2.042648098500
H  -3.761423816700  0.106036439200 -0.822426272300
H  -3.347836288700 -1.334821664800  0.142505344600
H  -4.677269298800 -1.344189207200 -2.514984000100
H  -4.249815608400 -2.748881418000 -1.516030167300
H  -3.038663463500 -0.307485837600 -4.019196910300
H  -1.658078252100 -1.271138429200 -4.623117429300
H  -3.341134699900 -2.081727803000 -6.198900714200
H  -4.646745529000 -1.936730142200 -4.992000401100
H  -0.572279303600 -3.167160996000 -0.271439453000
H  -2.329116172400 -3.388889109800 -0.467972463300
H  -1.209384354000 -4.183216339400 -1.601802254200
H  -1.718978016700  3.290180396200  0.254470513400
