56
exact QM-native source /Users/yazan/totah-lab/analysis/mettl7-phase2/execution-unit-05O/qm-native-minima/MIN02/trajectory-004.xyz
C   2.170170048100 -0.871932487000  1.146904200800
C   1.776280990500  0.268865463200  0.173484195500
C   3.008439216200  0.720552435200 -0.650661338700
C   4.061925523400  1.468542809700  0.165021510000
C   3.470716488000  2.664596377900  0.899061059100
O   4.131319942800  3.660748427500  1.182359156800
C   2.057772078600  2.523268848000  1.300359923900
C   1.279113897100  1.443044662300  1.019314777400
C  -0.102587263100  1.326453572300  1.603489124800
C  -1.159466859500  0.968400525300  0.554996752600
C  -0.753481434400 -0.314829455200 -0.183975629400
C   0.653281547300 -0.191476217600 -0.825577797000
C   1.026153307900 -1.471388307700 -1.603847218500
C  -0.039081019300 -1.885652375900 -2.633361620100
C  -1.413049596100 -2.050429146700 -1.965706643000
C  -1.768138404800 -0.725150850400 -1.253570674400
C  -3.250029706800 -0.871292176100 -0.862913170700
C  -3.842907259000 -1.809249147500 -1.948640991700
C  -2.660388447100 -2.186684210000 -2.890785122600
C  -2.664147835700 -1.344260999600 -4.189856432800
C  -3.555173845600 -2.170627487700 -5.115404068400
C  -3.335542838200 -3.600095829200 -4.628266499400
O  -3.574442876700 -4.640563775400 -5.190029231000
O  -2.799271806900 -3.551296332200 -3.366995855900
C  -1.385819767900 -3.259160997300 -1.006429477700
S  -1.408279268300  2.343125556300 -0.671420968600
H   2.868070014100 -0.504590230100  1.924255326900
H   2.669949141500 -1.700559021900  0.608433452400
H   1.288616136200 -1.293434965800  1.669740670900
H   2.646148980500  1.390444122100 -1.460426772100
H   3.468151622600 -0.157576122900 -1.147303947600
H   4.901093076900  1.827821298600 -0.462417162700
H   4.514359221700  0.804185856800  0.935400430400
H   1.660921363400  3.352053409300  1.909414772500
H  -0.098516534100  0.498409621300  2.351555911700
H  -0.371765572800  2.247558903800  2.156791114100
H  -2.135830877900  0.804293236800  1.054236267800
H  -0.725283667500 -1.109924122700  0.596172568800
H   0.570352971700  0.629941399500 -1.573873962200
H   1.991594278400 -1.321548104800 -2.127103819000
H   1.193291908800 -2.305538769600 -0.892777857500
H  -0.093039571500 -1.095735215100 -3.411418242100
H   0.265605529400 -2.822912157000 -3.145226063600
H  -1.718490519900  0.064502067300 -2.038742695600
H  -3.752533150100  0.114765809500 -0.825563805600
H  -3.347709498800 -1.324086242700  0.145703418700
H  -4.669725870900 -1.337384869300 -2.515535889300
H  -4.250507192800 -2.740432640700 -1.510851776200
H  -3.021772605500 -0.311624526900 -4.018213241300
H  -1.643659037100 -1.283205954800 -4.615037155900
H  -3.325570313600 -2.090433011900 -6.193944473100
H  -4.634219741400 -1.936246985900 -4.991506883000
H  -0.579656043100 -3.171487539400 -0.254614139200
H  -2.337046705300 -3.384391781300 -0.455094555500
H  -1.218587886300 -4.188075865000 -1.583538318700
H  -1.712555878100  3.283980584500  0.264809144300
