56
exact QM-native source /Users/yazan/totah-lab/analysis/mettl7-phase2/execution-unit-05O/qm-native-minima/MIN02/trajectory-010.xyz
C   2.097097381800 -0.860495254000  1.139362030300
C   1.737070629300  0.281536894400  0.154707158700
C   2.989446183900  0.706192824800 -0.652258690100
C   4.033887481500  1.459203370300  0.170615952000
C   3.441623923900  2.672399685900  0.874906188200
O   4.106796471600  3.667419788500  1.151065881000
C   2.023108151500  2.547784308500  1.262128939500
C   1.242425658900  1.468476313000  0.984349655600
C  -0.142190471200  1.361090214700  1.564279187800
C  -1.201048174100  0.993010215500  0.520981259900
C  -0.789241498200 -0.291790909200 -0.217425234500
C   0.617983042400 -0.161813537800 -0.856823524100
C   0.996371394800 -1.425565491400 -1.658217024000
C  -0.073982965800 -1.839612065200 -2.682275907000
C  -1.440620904100 -2.023852095500 -2.005744080900
C  -1.804228543800 -0.705372281300 -1.285512056800
C  -3.282450628000 -0.867358973500 -0.887063288100
C  -3.872983988100 -1.805537259700 -1.973656778200
C  -2.692360843500 -2.169778466000 -2.923359324500
C  -2.711495144500 -1.325589219400 -4.221018579500
C  -3.600998738700 -2.158751407200 -5.141923435500
C  -3.365534552300 -3.587200509800 -4.658776064700
O  -3.598053751200 -4.630140966900 -5.218612716700
O  -2.821362272800 -3.534916143500 -3.401073300700
C  -1.393194691000 -3.235718587900 -1.051539934900
S  -1.456983295200  2.358747453700 -0.712802203500
H   2.799237040700 -0.503558322100  1.917906720700
H   2.581257574100 -1.704306003200  0.610115194700
H   1.203833362900 -1.258276986000  1.660290786400
H   2.650877357100  1.363688459500 -1.482406064200
H   3.451449736500 -0.185075457000 -1.122340529900
H   4.888327906200  1.799179289900 -0.446865863500
H   4.465114911600  0.803837015600  0.960727573100
H   1.625457268000  3.385870349700  1.858122481300
H  -0.143024432500  0.550374903500  2.330330404700
H  -0.409604128200  2.294352259200  2.098968051600
H  -2.173531139500  0.821432039600  1.025200696500
H  -0.761878988900 -1.086173895100  0.563203449700
H   0.536318066300  0.675361125400 -1.587305019600
H   1.952465174100 -1.254070465600 -2.191459405400
H   1.185044270300 -2.268111515600 -0.962327759300
H  -0.142471969200 -1.041883664200 -3.451190771500
H   0.235719339100 -2.768169288900 -3.206920154500
H  -1.765859281300  0.087741600400 -2.068004595400
H  -3.794842168800  0.113233344000 -0.841034998200
H  -3.369039879400 -1.326609312300  0.119662609200
H  -4.706426356700 -1.338088156100 -2.534487582000
H  -4.270887067300 -2.741676412000 -1.537492429000
H  -3.076941354700 -0.296290042100 -4.045693073500
H  -1.694304923200 -1.255138921000 -4.652545594500
H  -3.379043227900 -2.074875331800 -6.221770131500
H  -4.681302041600 -1.934263021600 -5.010795084300
H  -0.585409938600 -3.139606779200 -0.302493277700
H  -2.340672588000 -3.376048111000 -0.497281731500
H  -1.215557577200 -4.160207474900 -1.632670158000
H  -1.693583497700  3.323277153700  0.219084172400
