56
exact QM-native source /Users/yazan/totah-lab/analysis/mettl7-phase2/execution-unit-05O/qm-native-minima/MIN02/trajectory-006.xyz
C   2.134143012300 -0.867736195500  1.151581807400
C   1.763028536900  0.271787747100  0.167880737200
C   3.008423623000  0.704182837700 -0.646077687700
C   4.057690649100  1.451723960000  0.175613580500
C   3.468735217500  2.660963831000  0.890279123200
O   4.133137110500  3.654550818800  1.173462667400
C   2.050588083400  2.535310544900  1.278192335900
C   1.268749703900  1.456867411100  0.999770950900
C  -0.114635694800  1.350084101600  1.582306957400
C  -1.176824551000  0.974488217900  0.545261341400
C  -0.764546850000 -0.308610502700 -0.194640433500
C   0.641504967100 -0.178778036900 -0.837086392700
C   1.017469324500 -1.449073737200 -1.629367090000
C  -0.050261232400 -1.863389944300 -2.655881694700
C  -1.419315880200 -2.041868200900 -1.982495887500
C  -1.779783319800 -0.722207708200 -1.263105331200
C  -3.259053474100 -0.879081808800 -0.866784860400
C  -3.850814990100 -1.815525393000 -1.954186358100
C  -2.669936607600 -2.182107798400 -2.902648226100
C  -2.684415691700 -1.335036195500 -4.198637486200
C  -3.574408574400 -2.163744565200 -5.123105400600
C  -3.343947633400 -3.593643181900 -4.642143333400
O  -3.578671665500 -4.634026933100 -5.205823387400
O  -2.802411740900 -3.545796148600 -3.383114745900
C  -1.379275234300 -3.254461305100 -1.028785725200
S  -1.442886507400  2.338919655600 -0.689954225800
H   2.831634578000 -0.504756425600  1.931442225200
H   2.626655117600 -1.706459234700  0.622034509600
H   1.243860434200 -1.274009799400  1.671314770400
H   2.661624416900  1.368881394900 -1.467008885000
H   3.467034209300 -0.182333114100 -1.128322652600
H   4.908096999200  1.796607850600 -0.444673033800
H   4.493924753600  0.791241427400  0.958509628400
H   1.653915178300  3.372364732600  1.876226100600
H  -0.113451930400  0.546455296400  2.356099919000
H  -0.381121758300  2.288087170400  2.109217756100
H  -2.145796114700  0.799861750200  1.055080895800
H  -0.735689324700 -1.105010709100  0.584042839000
H   0.556643977000  0.652677341900 -1.573802809200
H   1.978156485300 -1.288109762300 -2.157571755400
H   1.195510303600 -2.287651884700 -0.925976939400
H  -0.114108727300 -1.068093248900 -3.427703341800
H   0.258581228700 -2.794513655000 -3.176439768700
H  -1.738241384600  0.070229663700 -2.046062019600
H  -3.767129957300  0.103805646600 -0.822213643300
H  -3.349173560600 -1.337610472200  0.139964096100
H  -4.682566042900 -1.345841811700 -2.515672519900
H  -4.251399488800 -2.750873152400 -1.518800937600
H  -3.047643845400 -0.305243187600 -4.021738379000
H  -1.666249968000 -1.266141654900 -4.628159379400
H  -3.350089060100 -2.078333045200 -6.202352137100
H  -4.654321348200 -1.936460413400 -4.993610910000
H  -0.571036700400 -3.163393723300 -0.279566158200
H  -2.327521295500 -3.389315757700 -0.474513138600
H  -1.206997784600 -4.179744123000 -1.610254972100
H  -1.711596956100  3.295057715500  0.241895487900
