56
exact QM-native source /Users/yazan/totah-lab/analysis/mettl7-phase2/execution-unit-05O/qm-native-minima/MIN02/trajectory-008.xyz
C   2.119720987500 -0.865504389600  1.147572677700
C   1.754024819700  0.275275010800  0.163491958800
C   3.002256322000  0.704218549000 -0.647530921500
C   4.049647959700  1.453976727100  0.174472563400
C   3.459117524900  2.664019893100  0.885554984800
O   4.126421477700  3.656623265400  1.165292518000
C   2.040885262800  2.539231923500  1.273843468200
C   1.259192589800  1.460959007900  0.994927209500
C  -0.124325964500  1.352342763400  1.577327030900
C  -1.185065769400  0.981871351600  0.536790337300
C  -0.772926578600 -0.302398168000 -0.202926953200
C   0.633493510700 -0.172330724800 -0.844051173200
C   1.010725631300 -1.439504116800 -1.640328898100
C  -0.058182846900 -1.853996859100 -2.665649981500
C  -1.426086617400 -2.035300136100 -1.990685575900
C  -1.787998632300 -0.716050224900 -1.271132910300
C  -3.266701790200 -0.875326355400 -0.873522721700
C  -3.858056464900 -1.812816119000 -1.960340422600
C  -2.677424223300 -2.178326736800 -2.909533605600
C  -2.694318232100 -1.332697508400 -4.206370545600
C  -3.584120382100 -2.163610490400 -5.129040865400
C  -3.351246182700 -3.592770410500 -4.646962771000
O  -3.585033151100 -4.634394715700 -5.208749601000
O  -2.808322942300 -3.542713443700 -3.388640605700
C  -1.382434363900 -3.247436171400 -1.036617054600
S  -1.442321666200  2.346617552000 -0.697805332700
H   2.818946184800 -0.505585741200  1.927342871800
H   2.608786893100 -1.706288956800  0.617992481400
H   1.227854644000 -1.268253311600  1.667133413900
H   2.658663990700  1.366081823200 -1.472133459300
H   3.462524289900 -0.184054957500 -1.124874709300
H   4.901709259500  1.797008560200 -0.444665288700
H   4.484053349800  0.795719952600  0.960350658900
H   1.644421636200  3.376318468200  1.872004256700
H  -0.123494510800  0.545546872400  2.347348228400
H  -0.391669414700  2.287941386900  2.108292506300
H  -2.156263209400  0.809042205500  1.042732507800
H  -0.744930792500 -1.097913273500  0.576596570800
H   0.549438396300  0.661747058800 -1.577889206600
H   1.969416901100 -1.273568622600 -2.170658566100
H   1.193763040300 -2.279873807800 -0.940282559700
H  -0.124367569000 -1.057598867700 -3.436140837600
H   0.251283826300 -2.783856019500 -3.188094682400
H  -1.748366888300  0.076496338600 -2.054069851400
H  -3.776961551200  0.106410543100 -0.828273792800
H  -3.354935203200 -1.334078669300  0.133292090700
H  -4.690843027500 -1.344513873100 -2.521434050200
H  -4.257047069700 -2.748562564600 -1.524345222200
H  -3.058671986400 -0.303166486000 -4.030238494200
H  -1.676659794000 -1.262986104100 -4.636924442900
H  -3.361061677000 -2.078982836700 -6.208604245000
H  -4.664213904900 -1.937674012800 -4.998680232500
H  -0.574199464000 -3.153994222500 -0.287703734100
H  -2.330164102900 -3.384671955300 -0.482045286400
H  -1.207890644200 -4.172436916200 -1.617846349300
H  -1.697985840300  3.307897588700  0.232486186600
