56
exact QM-native source /Users/yazan/totah-lab/analysis/mettl7-phase2/execution-unit-05O/qm-native-minima/MIN02/trajectory-002.xyz
C   2.203096440200 -0.873281546900  1.139023995200
C   1.785687504500  0.268862747000  0.176957752800
C   3.002300359200  0.741078045700 -0.657797600000
C   4.055183717600  1.496217454100  0.152001904100
C   3.459018801800  2.677013182400  0.906812700500
O   4.113131081600  3.676789620400  1.192321820600
C   2.054300383300  2.514507167700  1.328068034500
C   1.284067377400  1.431125575900  1.039861940400
C  -0.091001995400  1.284473213100  1.633043263400
C  -1.146116726500  0.973087217700  0.566295678400
C  -0.750432933600 -0.317722402800 -0.175008596600
C   0.659375710500 -0.203430301000 -0.814408765600
C   1.029950703600 -1.489663233100 -1.582260032700
C  -0.032995980900 -1.903875086600 -2.614430205800
C  -1.411018979700 -2.056394161200 -1.952158364500
C  -1.762014559100 -0.725312773600 -1.248254251000
C  -3.246250532400 -0.861367062100 -0.863254896900
C  -3.839623062900 -1.802313040900 -1.946150820600
C  -2.655292176400 -2.190649412700 -2.881574047400
C  -2.649561763600 -1.354844255900 -4.184872483000
C  -3.541636796700 -2.181181963500 -5.109428398600
C  -3.331753232200 -3.609399134900 -4.614275416900
O  -3.574286345700 -4.651755697100 -5.170957216900
O  -2.799726589500 -3.556875465700 -3.351376890800
C  -1.394196566700 -3.260226956500 -0.986620835700
S  -1.318791901200  2.355974652500 -0.661443078200
H   2.903925839400 -0.503136166700  1.912472963100
H   2.707663576800 -1.691703218500  0.589548336100
H   1.331654022000 -1.309751402000  1.666443968700
H   2.621722654900  1.412900369900 -1.457544336700
H   3.467714391500 -0.126926357500 -1.167000642700
H   4.881357848500  1.872912122400 -0.482477966400
H   4.526786526300  0.830957212100  0.910079394300
H   1.656766794400  3.329474548300  1.955249384100
H  -0.083592918400  0.427151624200  2.344754118200
H  -0.360986159200  2.183007669400  2.224008271200
H  -2.137064661300  0.834528337200  1.042655550600
H  -0.728587093600 -1.112393799400  0.605508087900
H   0.576864571700  0.609538867400 -1.571348199500
H   1.998452070000 -1.346437324500 -2.102009730600
H   1.190442168200 -2.320867550800 -0.866098032600
H  -0.077936123300 -1.118607566000 -3.397771193700
H   0.268034470200 -2.846347874800 -3.118858341000
H  -1.704930190900  0.060678419000 -2.036187850000
H  -3.744786071400  0.127044728000 -0.833777869400
H  -3.350819534800 -1.307715375500  0.147584484400
H  -4.662014800300 -1.329711522100 -2.518847150900
H  -4.253395189100 -2.728979904900 -1.504600675600
H  -3.002039625200 -0.319365607100 -4.019850931800
H  -1.627166489700 -1.301568959600 -4.606508602800
H  -3.307807684000 -2.107664081300 -6.187533946300
H  -4.619879037800 -1.940405053600 -4.990710752200
H  -0.590037753000 -3.172989606400 -0.232602002000
H  -2.348044873900 -3.377326428500 -0.437927572900
H  -1.230069960800 -4.193143097900 -1.558157748300
H  -1.649969516500  3.304789722600  0.258344484400
