56
phi060_psi060_B_m10 final
C   2.7137362044 -1.6973455581  3.1085823926
C   2.4888996763 -0.9098732464  1.7929273571
C   3.8266208321 -0.2466082903  1.3809999574
C   4.3099470280  0.7567170358  2.4366261533
C   3.2415590601  1.7336210323  2.9473662656
O   3.5511149632  2.7404386711  3.5774853230
C   1.8431435943  1.4446147177  2.5617179921
C   1.4850749271  0.2789911590  1.9672043834
C   0.1993399751  0.0093052594  1.2630765799
C  -0.3275354795 -1.3698802028  1.8326614626
C   0.4787548330 -2.4273561006  0.9946523736
C   1.9193031296 -1.8515869569  0.6693029141
C   2.8153616613 -3.0044825669  0.1877882815
C   2.2158137127 -3.6630698481 -1.0757860779
C   0.7662259692 -4.1373055674 -0.8543922823
C  -0.1002111743 -2.9665606975 -0.3068212867
C  -1.5404896618 -3.5078081373 -0.3493526372
C  -1.5441674804 -4.4889497946 -1.5544505375
C  -0.0853433435 -4.5106216315 -2.1054606219
C   0.0754646551 -3.6105651158 -3.3557635650
C  -0.2673036866 -4.5649833683 -4.4980784677
C   0.1493393652 -5.9283592451 -3.9534310458
O   0.3532313137 -6.9564896569 -4.5507458586
O   0.2619815245 -5.8347901105 -2.5906389529
C   0.7865368828 -5.3585788948  0.0926012491
S  -0.9080984453 -2.4453310746  3.3092975566
H   2.9614082719 -1.0226586637  3.9497325916
H   3.5539987643 -2.4108260052  2.9838732200
H   1.8293533528 -2.2843520938  3.4282971428
H   3.6793140870  0.2733117211  0.4093808754
H   4.6043845095 -1.0209964918  1.2148062869
H   5.1506567912  1.3754241753  2.0627166570
H   4.7125620366  0.2296865735  3.3285223299
H   1.1233915654  2.2695130350  2.6900070617
H  -0.5023589655  0.8585831262  1.4138584902
H   0.3042224186 -0.0805605449  0.1660080759
H   0.5144108243 -1.3122408989  2.5588318811
H   0.6394311264 -3.3069216397  1.6555903371
H   1.8105906545 -1.1973597074 -0.2247202658
H   3.8308069213 -2.6303432872 -0.0557158430
H   2.9482089690 -3.7556973997  0.9944901408
H   2.2439927481 -2.9066781864 -1.8884128922
H   2.8504043997 -4.5112983696 -1.4083844184
H  -0.0322072236 -2.1476580971 -1.0619500858
H  -2.2786510369 -2.6898704533 -0.4590735824
H  -1.7877986186 -4.0271885089  0.5976939504
H  -2.2630744415 -4.1950322004 -2.3450572763
H  -1.8155151768 -5.5170965184 -1.2474278318
H  -0.5687319406 -2.7126014654 -3.3098607371
H   1.1246160087 -3.2702920725 -3.4566954887
H   0.2406078273 -4.3609036392 -5.4587139178
H  -1.3579878985 -4.6069702004 -4.7060240838
H   1.3619445578 -5.1560105812  1.0148510024
H  -0.2254056089 -5.6803843645  0.4024214584
H   1.2619301999 -6.2129981096 -0.4243574495
H  -1.9994397880 -1.7841853928  3.8036310182
