56
phi300_psi060_B_p10 cycle 18
C   2.7819696829 -1.3959419426  3.0038759584
C   2.4397769586 -0.6419291135  1.6927563083
C   3.7274125397  0.0496702386  1.1836568147
C   4.2572128468  1.0533242204  2.2190182983
C   3.2027707833  1.9676380781  2.8708700754
O   3.5437138570  2.9204241913  3.5644649553
C   1.7898963184  1.7038396214  2.5182624622
C   1.4215210214  0.5630423631  1.8880508490
C   0.1701167853  0.2284176634  1.1664342233
C  -0.3361058963 -1.0783100201  1.8756948082
C   0.3743979305 -2.2058553367  1.0247366199
C   1.8290792387 -1.6575260423  0.6407422303
C   2.6973149481 -2.8454132864  0.1981457270
C   2.0576094206 -3.5324715921 -1.0318988074
C   0.5988816161 -3.9620334013 -0.7746361500
C  -0.2417672141 -2.7571951836 -0.2519554714
C  -1.6893850614 -3.2735870683 -0.2573861937
C  -1.7276029672 -4.2940751342 -1.4289464805
C  -0.2786706343 -4.3554008350 -2.0019714653
C  -0.1229722364 -3.4917354440 -3.2783375446
C  -0.4950534003 -4.4712121796 -4.3899478229
C  -0.0949937874 -5.8264834197 -3.8137479091
O   0.0817572490 -6.8746090018 -4.3838265854
O   0.0391753984 -5.6975088342 -2.4551737229
C   0.6087009225 -5.1545045446  0.2088624120
S  -0.7525095035 -1.1533447853  3.6867254774
H   2.9986267246 -0.7041404490  3.8402834705
H   3.6784257748 -2.0308820242  2.8508588399
H   1.9711758050 -2.0744405977  3.3407174110
H   3.4984716374  0.5724706944  0.2300402808
H   4.5088845213 -0.7060359659  0.9560393495
H   5.0179455139  1.7291006894  1.7776782385
H   4.7835902470  0.5315599210  3.0466345446
H   1.0770615159  2.5285163634  2.6800011098
H  -0.5617751398  1.0625095715  1.2414131644
H   0.3169006414  0.0619230816  0.0863933864
H   0.6438684277 -1.1416160193  2.4115128938
H   0.5098325977 -3.0655986771  1.7166435792
H   1.7047888601 -1.0603236913 -0.2885242615
H   3.7150636050 -2.5002582929 -0.0784857708
H   2.8304374487 -3.5696756386  1.0288586148
H   2.0943618313 -2.8059831647 -1.8709160238
H   2.6626444290 -4.4095024710 -1.3438447963
H  -0.1687402705 -1.9597813554 -1.0284327765
H  -2.4152116164 -2.4471487376 -0.3819216773
H  -1.9313248755 -3.7611867240  0.7085020478
H  -2.4551468800 -4.0150868914 -2.2169163060
H  -2.0086136075 -5.3074595169 -1.0840733856
H  -0.7541701367 -2.5839419240 -3.2477660271
H   0.9291066744 -3.1688351872 -3.4027899751
H   0.0054912323 -4.3019081916 -5.3611493910
H  -1.5884115743 -4.5000167141 -4.5853949875
H   1.2208141896 -4.9447653419  1.1054265553
H  -0.4025354649 -5.4338892889  0.5597946529
H   1.0389160702 -6.0389602380 -0.2969962935
H   0.4679643007 -0.8058772918  4.1967889608
