56
candidate 002 CARTESIAN_THERMAL MIN01
C   2.0228493972 -0.6199552650  1.7500509567
C   1.7279028196 -0.2513251844  0.2076944346
C   2.6957048081  0.6379287160 -0.3068708115
C   2.9053486079  2.0386704227  0.1197904013
C   1.4820109860  2.7630858842  0.0834286990
O   1.4218479734  3.9967307190 -0.1824302936
C   0.2558708058  1.8462823836  0.0671417560
C   0.4777304213  0.5234711216  0.3948214057
C  -0.9306132346 -0.2305914533  0.5699665772
C  -1.0097870428 -1.4747202443 -0.2358001253
C   0.1163460734 -2.3481918041 -0.2388205860
C   1.5677368217 -1.5288993355 -0.6516773319
C   2.7360572702 -2.4736329085 -0.5334459794
C   2.5925929728 -3.6958369477 -1.4978615998
C   1.2667663445 -4.4751831337 -0.9584049844
C   0.2033243665 -3.6030366573 -1.1212483676
C  -1.1351078928 -4.5152352376 -1.1012512249
C  -0.5697551502 -5.8405381397 -1.5650506875
C   0.7519677753 -5.6650434532 -2.0620473623
C   1.0585315046 -5.3810204737 -3.4497713019
C   1.1106113309 -6.7698004342 -4.0929654543
C   1.8129768255 -7.5813565118 -3.0327596018
O   2.3061840120 -8.6167227975 -2.9310428787
O   1.7318286213 -6.8181803949 -1.8208183214
C   1.4935480935 -5.1368064447  0.4585207704
S  -1.4583637395 -0.9085299197 -2.0324467084
H   1.9796782630  0.3401852796  2.2772065780
H   3.1599956993 -1.0962744954  1.8656890778
H   1.3320351649 -1.2907155415  2.1833620907
H   2.6241035595  0.6627152910 -1.3260944058
H   3.6816594538  0.1122040255 -0.1749008429
H   3.7212663129  2.6698717291 -0.4357842999
H   3.0440417925  2.1296557304  1.3292893071
H  -0.6007764728  2.3608228958  0.0779876657
H  -0.9350033558 -0.6529903708  1.7692446766
H  -1.6874188096  0.4311732168  0.5887154046
H  -1.9528452498 -2.0679833891 -0.0953889331
H   0.2909293297 -2.6988054681  0.8899803625
H   1.2704113335 -1.1609188636 -1.6463005704
H   3.7508811450 -1.8962484056 -0.8125744210
H   2.9274129247 -2.7576120662  0.4829567370
H   2.5127830596 -3.3247038599 -2.6522199160
H   3.3749492979 -4.3691816933 -1.3840333405
H   0.1760204396 -3.1752053998 -2.2429296943
H  -2.0105872316 -4.0864401225 -1.4211118628
H  -1.3772163498 -4.6570391294  0.0707203920
H  -1.3297424399 -6.1872372031 -2.5529612412
H  -0.5441665807 -6.6422987795 -0.7803598195
H   0.1054754737 -4.8269328744 -3.9726484809
H   1.9866469057 -4.7957966982 -3.6126968448
H   1.6020533136 -6.8393879007 -5.0432067265
H   0.2270281577 -7.3063908590 -4.4154059404
H   1.7552594020 -4.3353596938  1.1444703120
H   0.6763061390 -5.6258257190  0.6589587455
H   2.3012804729 -5.8572257203  0.4372880449
H  -0.5034683349  0.1541506774 -2.0526176207
