56
M-D02 cycle 4
C   2.4054845782 -0.8227410061  1.0088722758
C   1.7829497051  0.3113596501  0.1512819008
C   2.8590962248  0.9590733412 -0.7464371665
C   3.8940047584  1.7621992431  0.0453518904
C   3.2777259259  2.7933478781  0.9914955440
O   3.8917656887  3.8074312744  1.3150117497
C   1.9573185740  2.4543326908  1.5555584412
C   1.2535752142  1.3677526627  1.1512568962
C  -0.0453597721  0.8762409694  1.7174783493
C  -1.1158963024  1.0459222324  0.6019768726
C  -0.8293719021 -0.3133669297 -0.1601610451
C   0.6227969229 -0.2764327201 -0.7681773322
C   0.9768851191 -1.6084120225 -1.4526622286
C  -0.0671965532 -2.0143260069 -2.5107697738
C  -1.4830690504 -2.0657176386 -1.9098520144
C  -1.8052344711 -0.6902479386 -1.2743873020
C  -3.3105683317 -0.7486569310 -0.9559642275
C  -3.8952175503 -1.7051272449 -2.0305033355
C  -2.6875578605 -2.1828498209 -2.8923409695
C  -2.5828589614 -1.4042493102 -4.2264080305
C  -3.4694953781 -2.2279125778 -5.1586934593
C  -3.3499092225 -3.6420109383 -4.5971823718
O  -3.6149318458 -4.6950893371 -5.1224737193
O  -2.8743895188 -3.5599783004 -3.3134779975
C  -1.5680400915 -3.2276619542 -0.8979118254
S  -0.6939472762  2.2415229368 -0.7539141311
H   3.1305198792 -0.4192371415  1.7425768780
H   2.9423877425 -1.5469039790  0.3655277794
H   1.6395922941 -1.3868428354  1.5754683903
H   2.3353348346  1.6426036273 -1.4499356225
H   3.3662985629  0.1902029073 -1.3656549231
H   4.6085129162  2.2888812790 -0.6173996808
H   4.5094065486  1.0875017175  0.6825734189
H   1.5699494974  3.1287251292  2.3376025309
H  -0.0274028120 -0.1535932238  2.1073133017
H  -0.3039906221  1.5340824250  2.5818313290
H  -2.1574651875  1.1353632645  0.9585194513
H  -0.8867861658 -1.1050363153  0.6171071650
H   0.5503921776  0.4607043326 -1.5916766970
H   1.9668032147 -1.5139606080 -1.9447219955
H   1.0872286254 -2.4182066292 -0.7018791109
H  -0.0361091241 -1.2630545760 -3.3276232584
H   0.2022707692 -2.9924186175 -2.9624274915
H  -1.6740387541  0.0640260262 -2.0844015365
H  -3.7717453203  0.2578006714 -0.9850346039
H  -3.4805914157 -1.1505808986  0.0646245047
H  -4.6690584854 -1.2218224612 -2.6592153522
H  -4.3695263693 -2.5947061181 -1.5737880284
H  -2.8936613759 -0.3479319163 -4.1201876264
H  -1.5407395888 -1.4148076581 -4.6004425573
H  -3.1829850218 -2.2108137592 -6.2264032270
H  -4.5395376427 -1.9339799221 -5.1016250826
H  -0.7922336207 -3.1482263687 -0.1140489582
H  -2.5489888943 -3.2766699276 -0.3876069663
H  -1.4261383875 -4.1897825514 -1.4251040019
H  -0.5756182982  3.3651159663  0.0131154868
