56
candidate 064 CONTROLLED_LOCAL MIN02
C   2.3417106381 -0.2402605239  1.4598742043
C   1.8526457334  0.8784962079  0.5046978112
C   3.0643742736  1.6199044092 -0.1140220751
C   3.8218750390  2.5065435046  0.8735070522
C   2.9051130925  3.5080863394  1.5627439305
O   3.3022507843  4.5958205771  1.9724885643
C   1.5144339770  3.0571700114  1.7630282556
C   1.0235937894  1.8636534209  1.3315697779
C  -0.3593429376  1.4213049369  1.7274037440
C  -1.1922487229  0.9260871763  0.5416030548
C  -0.4320733563 -0.1782067596 -0.2118665977
C   0.9743233754  0.2966765597 -0.6625068101
C   1.7046458256 -0.7876274515 -1.4832323005
C   0.8681908829 -1.3312267114 -2.6539654723
C  -0.4901863884 -1.8542022412 -2.1637387488
C  -1.2094753325 -0.7059925677 -1.4198804012
C  -2.6508715348 -1.2077182882 -1.2179067348
C  -2.9001648077 -2.1559800959 -2.4213062969
C  -1.5721726503 -2.1842938053 -3.2362900669
C  -1.6340252306 -1.2592894855 -4.4763359890
C  -2.2144383751 -2.1822061637 -5.5462976107
C  -1.7262597107 -3.5637104193 -5.1194000994
O  -1.6633474271 -4.5818456878 -5.7633462423
O  -1.3466624133 -3.5019787854 -3.8030347197
C  -0.2827757737 -3.1033942212 -1.2816932031
S  -1.3291293762  2.4748689897 -0.5400680426
H   2.8622829770  0.1901588304  2.3375530283
H   3.0504085785 -0.9195401601  0.9472257602
H   1.5042276984 -0.8554836995  1.8442162767
H   2.6853619134  2.2561007056 -0.9432853432
H   3.7585747708  0.8857371174 -0.5699579735
H   4.6446868378  3.0667464915  0.3876274379
H   4.2951479317  1.8947175729  1.6743329573
H   0.8804288385  3.7421429914  2.3499781991
H  -0.2684045499  0.5437327914  2.4098614333
H  -0.8665654321  2.2165644446  2.3093932152
H  -2.2087340096  0.6544334708  0.8913524521
H  -0.3175887996 -1.0109754649  0.5193056693
H   0.7923639277  1.1566195626 -1.3469791533
H   2.6513599995 -0.3740551806 -1.8838964218
H   1.9977182555 -1.6263372047 -0.8195921193
H   0.7108610305 -0.5047882027 -3.3782262053
H   1.4284022864 -2.1271297642 -3.1888424917
H  -1.2602466829  0.1396342748 -2.1446176088
H  -3.3671336059 -0.3640733888 -1.1796727873
H  -2.7438749222 -1.7564777127 -0.2576374340
H  -3.7492962515 -1.8291660963 -3.0536387218
H  -3.1293280550 -3.1875679235 -2.0923354120
H  -2.2323225170 -0.3477725330 -4.2894786064
H  -0.6160255681 -0.9414037466 -4.7738075283
H  -1.9001017294 -1.9650408465 -6.5838100199
H  -3.3253773745 -2.2016116510 -5.5374880525
H   0.3972057803 -2.9010894339 -0.4334471261
H  -1.2312418723 -3.4859358596 -0.8589796457
H   0.1559494586 -3.9183059287 -1.8878117594
H  -1.5475592280  3.3089923621  0.4725169264
