56
phi060_psi+060 cycle 2
C   2.8087005771 -1.5218390009  2.8669083688
C   2.3102366828 -0.6157106985  1.7114204934
C   3.5094809893  0.2169373659  1.1856742636
C   4.1258857605  1.0613259563  2.3169444455
C   3.1107247726  1.7923256657  3.2191277813
O   3.5321223744  2.5916755773  4.0535230810
C   1.6788732875  1.5782322438  2.9332199375
C   1.2815510842  0.5170772253  2.1951582201
C   0.0203984499  0.2385308853  1.4625710462
C  -0.3418126670 -1.1966477730  1.9537573610
C   0.2098497572 -2.1627041209  0.8471619677
C   1.6608450860 -1.5089278470  0.5341913501
C   2.5356783933 -2.6378677585 -0.0491490704
C   1.8695309569 -3.2482631057 -1.3181394119
C   0.4213187638 -3.7304060885 -1.0718618401
C  -0.4064947445 -2.5290512637 -0.4949799530
C  -1.8693481432 -2.9807370406 -0.5771914901
C  -1.9209235889 -3.8268716804 -1.8786666617
C  -0.4455152118 -4.1085517116 -2.3168645675
C  -0.0753586781 -3.4444603111 -3.6550670480
C  -0.6893489891 -4.3995540095 -4.6784209404
C  -0.5303269306 -5.7548742555 -4.0027355955
O  -0.5742819445 -6.8586280764 -4.4868595852
O  -0.3212771550 -5.5591193745 -2.6404453239
C   0.4395421305 -4.9627683059 -0.1320225069
S  -0.6093098268 -1.3325190312  3.8765046725
H   3.1279353312 -0.9157425440  3.7331751478
H   3.6686583456 -2.1319311027  2.5268385749
H   2.0291651357 -2.2172660888  3.2357632276
H   3.1433048941  0.8874036661  0.3808414166
H   4.2871658035 -0.4431106230  0.7484707588
H   4.7933491796  1.8419022669  1.8995712862
H   4.7668311690  0.4369291114  2.9723237756
H   0.9703064943  2.3461474616  3.2817257086
H  -0.7787276891  0.9756608593  1.6923843817
H   0.1735684679  0.2729710592  0.3725065622
H   0.6393085010 -1.4083104539  2.4091955114
H   0.4006653487 -3.1189360421  1.3702633449
H   1.5135218475 -0.8030099663 -0.3093876493
H   3.5236272544 -2.2334174314 -0.3495622781
H   2.7199465387 -3.4227917392  0.7104042635
H   1.8644738843 -2.4614352296 -2.1002128629
H   2.4935216974 -4.0869260650 -1.6897093163
H  -0.2656490990 -1.6769310318 -1.1972125799
H  -2.5578056689 -2.1167644614 -0.6255315698
H  -2.1427172535 -3.5787799695  0.3129056483
H  -2.4562689142 -3.2823174050 -2.6796025805
H  -2.4304688584 -4.7953730648 -1.7257797186
H  -0.4514764796 -2.4067010333 -3.7223362529
H   1.0244083633 -3.4370882277 -3.7792085830
H  -0.2001676686 -4.3982838743 -5.6690970946
H  -1.7727446086 -4.2134769769 -4.8274175310
H   1.1066343047 -4.8201083699  0.7359412577
H  -0.5717362287 -5.2084533005  0.2425641002
H   0.7978939220 -5.8371020117 -0.7015562034
H  -1.6511796188 -0.4532464748  4.0448195138
