56
TSL_RSH 2D constrained phi=60 psi=-60
C   2.4461863911 -0.3177938056  1.6646932113
C   1.8200151777 -0.0314518011  0.2656811098
C   2.7415014802  0.9182617463 -0.5521943084
C   2.8624624665  2.3263301791  0.0634070998
C   1.5005634936  2.9987782575  0.2781461571
O   1.3624542032  4.2466925112  0.3141019785
C   0.3850451912  2.0519289633  0.5107477678
C   0.4910357815  0.6964885247  0.5261038419
C  -0.6655284979 -0.1946197331  0.9410139251
C  -0.9331089635 -1.2667610148 -0.1406167838
C   0.3095381574 -2.1853149747 -0.2309110226
C   1.6010418679 -1.3687738901 -0.5753208936
C   2.8418310333 -2.3139450340 -0.5503836199
C   2.6766931802 -3.5845766120 -1.4381443616
C   1.3874717813 -4.3601253761 -1.0774239249
C   0.1992009237 -3.3551441325 -1.2456178838
C  -1.0714628521 -4.2429403354 -1.2386488368
C  -0.6058321240 -5.5895862176 -1.8985285823
C   0.9573859088 -5.5429899001 -2.0228048665
C   1.4369245620 -5.4806477753 -3.4937257144
C   1.3816212335 -6.9510725587 -3.9412412044
C   1.7582552369 -7.7280622458 -2.6669592501
O   2.1774783051 -8.8784923977 -2.5493684618
O   1.5331232242 -6.8752115404 -1.5428765308
C   1.4752356629 -4.9584463961  0.3463650761
S  -1.3733050582 -0.4482780467 -1.8143289019
H   2.4899140051  0.6098391765  2.2550933106
H   3.4676216563 -0.7136644849  1.5552660483
H   1.8436432711 -1.0501312938  2.2247635125
H   2.3170731888  1.0122341358 -1.5690514719
H   3.7426270049  0.4651756694 -0.6465445752
H   3.4767874950  2.9911157987 -0.5647158722
H   3.3587786738  2.2665318520  1.0510517735
H  -0.5784076627  2.5206427674  0.7314701139
H  -0.4188789614 -0.7076078510  1.8897399371
H  -1.5696510234  0.4145625177  1.1009989715
H  -1.8353922933 -1.8493562499  0.0995807375
H   0.4180665628 -2.6253900326  0.7791926509
H   1.4717071007 -1.0425459002 -1.6263033775
H   3.7276799600 -1.7559099530 -0.9015492638
H   3.0423920309 -2.6236688536  0.4874937837
H   2.6178365873 -3.2627700474 -2.4932296404
H   3.5672498279 -4.2269419620 -1.3223075026
H   0.2767499291 -2.9077714682 -2.2557140387
H  -1.8875079715 -3.7690560993 -1.8044571334
H  -1.4191946252 -4.4196692685 -0.2076714516
H  -1.0637096635 -5.7282385755 -2.8909654334
H  -0.8687538747 -6.4542306363 -1.2721442854
H   0.8088363988 -4.8076108849 -4.0947720823
H   2.4814313884 -5.1352115650 -3.5288509294
H   2.0750591276 -7.2038399440 -4.7542831219
H   0.3610110978 -7.2457038009 -4.2421006224
H   1.8017181055 -4.2145614732  1.0870031511
H   0.4988819488 -5.3611335627  0.6609077294
H   2.1895634302 -5.7933515345  0.3321781128
H  -0.1786114868  0.2406962620 -1.9349135622
