56
candidate 046 CONTROLLED_LOCAL MIN01
C   2.1316609031 -0.9160527159  1.8808035779
C   1.8515483093 -0.6571966402  0.3786990325
C   3.0960391584 -0.0221301213 -0.2924120902
C   3.3349799531  1.4385257314  0.0883973027
C   2.1156552209  2.3036291350 -0.1962994595
O   2.1966817040  3.4927350755 -0.4909050639
C   0.8129838443  1.6260624263 -0.0298100943
C   0.6677174466  0.3080672770  0.2838579849
C  -0.6940548158 -0.2538199552  0.5931720029
C  -1.0012363764 -1.5028211988 -0.2430007640
C   0.1019307897 -2.5584717681 -0.0367752821
C   1.4995583450 -1.9885071507 -0.3831652793
C   2.6054340945 -3.0585573617 -0.2657432190
C   2.2879949260 -4.3449988593 -1.0461362517
C   0.9295472853 -4.9231080569 -0.6236569471
C  -0.1468319747 -3.8350610238 -0.8396877178
C  -1.4884640514 -4.5725616571 -0.6694868672
C  -1.1895941048 -6.0260618995 -1.1253710194
C   0.3229820031 -6.0623891354 -1.4971042378
C   0.5455476944 -5.9658760104 -3.0260821320
C   0.4897246906 -7.4295144695 -3.4597237810
C   0.9979581949 -8.1788705811 -2.2311116132
O   1.4140437783 -9.3079901446 -2.1452385861
O   0.9059239537 -7.3453989481 -1.1459667286
C   1.0032775256 -5.4166475298  0.8368354566
S  -1.2736351313 -1.1307262827 -2.0492297420
H   2.2724658052  0.0378322596  2.4260001116
H   3.0505554752 -1.5193964831  2.0144339335
H   1.2996210452 -1.4568464585  2.3730915234
H   2.9589559619 -0.0825926040 -1.3945520427
H   3.9952355173 -0.6253262060 -0.0557656849
H   4.2038963329  1.8739966710 -0.4426454443
H   3.5547836688  1.5330872093  1.1758017284
H  -0.0707818874  2.2805665955 -0.1103516250
H  -0.6922438228 -0.6214905634  1.6448572843
H  -1.4671632750  0.5351152630  0.5220394559
H  -1.9519049749 -1.9516435854  0.1093946493
H   0.0706075694 -2.8142234754  1.0477772929
H   1.4369006003 -1.7075785690 -1.4604754411
H   3.5643580731 -2.6447371971 -0.6362524061
H   2.7748284943 -3.3065679214  0.8017444906
H   2.2673455715 -4.0952296549 -2.1275076839
H   3.0979819568 -5.0910167221 -0.9017118871
H  -0.0761162611 -3.5286456025 -1.9080849851
H  -2.2937513920 -4.0992959145 -1.2649138252
H  -1.8181964782 -4.5515313647  0.3903033430
H  -1.8187583203 -6.3435221577 -1.9803729315
H  -1.3672227236 -6.7568494633 -0.3134188032
H  -0.2031667892 -5.3169117206 -3.5178710460
H   1.5486513891 -5.5521227224 -3.2462263215
H   1.0968019741 -7.6866657160 -4.3472853587
H  -0.5465644288 -7.7771601517 -3.6595449071
H   1.3291026940 -4.6158430308  1.5264444379
H   0.0301844447 -5.7920255920  1.2066944783
H   1.7248113462 -6.2519091155  0.9129623784
H  -0.4277358042 -0.1134097307 -2.1119157685
