56
candidate 012 CARTESIAN_THERMAL MIN02
C   2.0495529738 -0.8543801069  1.1243631719
C   1.7720182511  0.3016653315  0.1013410223
C   2.9481387650  0.7090485769 -0.6371739986
C   4.0333754200  1.4780429977  0.1442871333
C   3.3729937164  2.7022767299  0.9169801327
O   4.1204446747  3.6677091326  1.1499859111
C   1.9984949891  2.5525557811  1.1974207576
C   1.2267467600  1.4831212827  0.9893024251
C  -0.1997456322  1.3494544716  1.5294725235
C  -1.1734077210  0.9928461453  0.5559693645
C  -0.8230380844 -0.2760498935 -0.2272085666
C   0.6260551018 -0.1611105769 -0.9093043513
C   0.9324074757 -1.4078079336 -1.6475099499
C  -0.0528029365 -1.8100008853 -2.7116838247
C  -1.4602657918 -2.0336666812 -1.9643717860
C  -1.8060183009 -0.7058241019 -1.3031808870
C  -3.3258623425 -0.8616011654 -0.9437639775
C  -3.8290605666 -1.8202219948 -1.9631046282
C  -2.7318906277 -2.1652762371 -2.9568969757
C  -2.7136437166 -1.3056239035 -4.1841000371
C  -3.6663632630 -2.1610525789 -5.1463881867
C  -3.3386652253 -3.5767901446 -4.7078232369
O  -3.6118397089 -4.6058641118 -5.2020731016
O  -2.8243766135 -3.5491465195 -3.4455603509
C  -1.4358318927 -3.2373503811 -1.0296812132
S  -1.4332459890  2.3680774755 -0.7191619641
H   2.7699013532 -0.5126513055  1.8475677538
H   2.6006154762 -1.6959147344  0.6213343663
H   1.1290784595 -1.2379381271  1.6274763637
H   2.6686667352  1.3656994988 -1.4316488791
H   3.4230508063 -0.1647687439 -1.1217277218
H   4.8787621406  1.8404095835 -0.5232198233
H   4.4084169080  0.8032969939  0.9672226593
H   1.6641112686  3.3885153269  1.8198679695
H  -0.1832049379  0.5587989916  2.3742290842
H  -0.4039565961  2.2770089250  2.0985147864
H  -2.2425890875  0.8158157777  0.9750367761
H  -0.7210650832 -1.0703329799  0.5874163117
H   0.5154171476  0.6782958878 -1.6085258365
H   1.9365751615 -1.2265717642 -2.1422432839
H   1.1265673683 -2.2343422671 -0.9911490105
H  -0.1098628052 -1.0443098173 -3.5215319484
H   0.1983445484 -2.7544462530 -3.2010653404
H  -1.7604523863  0.1044669736 -2.0979740825
H  -3.8779962117  0.0914699442 -0.7835942300
H  -3.3399608068 -1.3341309242  0.1218299236
H  -4.7348431381 -1.3273960266 -2.5794351545
H  -4.2658966555 -2.7579870079 -1.5046124989
H  -3.1393122950 -0.2852769209 -4.0902318516
H  -1.6503143593 -1.2214165184 -4.6198190781
H  -3.4326268444 -2.0892617517 -6.2371558830
H  -4.6807260927 -1.9421972790 -5.0725157879
H  -0.6469801323 -3.1267009595 -0.2933480608
H  -2.2975442528 -3.3973597143 -0.5360375257
H  -1.2219710112 -4.1569694454 -1.5923081662
H  -1.7070893778  3.3358781744  0.2314282373
