56
M-V01 cycle 10
C   2.6461333004 -1.5924748627  3.0586337132
C   2.4503348336 -0.8494288948  1.7122772243
C   3.7970998813 -0.2104955928  1.2916771816
C   4.2612075838  0.8538899163  2.2935308671
C   3.1832099152  1.8633914395  2.7045196338
O   3.4641522310  2.9129440218  3.2753689579
C   1.7926416631  1.5344306392  2.3182478592
C   1.4408984316  0.3222220612  1.8189663434
C   0.1261414638  0.0325728617  1.1688744688
C  -0.4263097052 -1.3094916669  1.8540356121
C   0.4445530872 -2.3447025290  1.0042532337
C   1.8752571365 -1.8035915213  0.6238613946
C   2.7413245402 -2.9903248713  0.1736530753
C   2.1198902415 -3.6604408588 -1.0716621354
C   0.6550426393 -4.0799283605 -0.8399108261
C  -0.1717201100 -2.8818847461 -0.2870800827
C  -1.6308956606 -3.3768108973 -0.3362248911
C  -1.6670652839 -4.3493240738 -1.5463709437
C  -0.2088295395 -4.4262334873 -2.0915472342
C  -0.0140640718 -3.5390780356 -3.3463179971
C  -0.3885560467 -4.4865290475 -4.4846372331
C  -0.0250157789 -5.8616941140 -3.9318823258
O   0.1398191891 -6.9004923387 -4.5223118788
O   0.0896722366 -5.7648905075 -2.5688625284
C   0.6363096684 -5.2973292170  0.1114633140
S  -0.9865821901 -2.4653756116  3.3206258048
H   2.8272032933 -0.8847663815  3.8902450249
H   3.5211624948 -2.2712821798  2.9925383068
H   1.7708568476 -2.2118685364  3.3411021473
H   3.6714278292  0.2521830514  0.2885379496
H   4.5735104276 -0.9966429382  1.1869101468
H   5.1157993130  1.4434904813  1.9043710430
H   4.6331007744  0.3840813685  3.2298232388
H   1.0634184586  2.3568068257  2.3964629067
H  -0.5398018912  0.9152786887  1.2882668670
H   0.1944332585 -0.1231969552  0.0757253143
H   0.3593212018 -1.1655058931  2.6355964628
H   0.6307915394 -3.2126302430  1.6655220481
H   1.7723664820 -1.1742617692 -0.2897225822
H   3.7649184578 -2.6463511906 -0.0805362281
H   2.8568640119 -3.7233186544  0.9996761541
H   2.1739074511 -2.9249736654 -1.9015364803
H   2.7230008767 -4.5381156237 -1.3855963462
H  -0.0900800328 -2.0716621946 -1.0503553589
H  -2.3437511400 -2.5355382673 -0.4344793579
H  -1.9092103748 -3.9074480660  0.5964215005
H  -2.3716981405 -4.0227055009 -2.3367703673
H  -1.9800309949 -5.3675021468 -1.2457938329
H  -0.6265626221 -2.6189173230 -3.3059024067
H   1.0460205529 -3.2357900763 -3.4478571638
H   0.1305601866 -4.3066272021 -5.4441222328
H  -1.4790590865 -4.4887707300 -4.6976245937
H   1.2305206605 -5.1119841137  1.0256054173
H  -0.3849654438 -5.5775081035  0.4328438630
H   1.0694111672 -6.1739612385 -0.4053956390
H  -1.3290859995 -3.5673029190  2.5887255207
