56
candidate 032 NORMAL_MODE MIN02
C   2.1520169293 -0.8630830062  1.1469338585
C   1.7456505640  0.2770928339  0.1755197272
C   2.9880103980  0.7193895619 -0.6424989696
C   4.0360280276  1.4692224272  0.1824641407
C   3.4420829708  2.6922607305  0.8683192696
O   4.1042874900  3.6911932749  1.1382527338
C   2.0182335849  2.5689618239  1.2405284331
C   1.2474031272  1.4736064372  0.9911873447
C  -0.1440464888  1.3810891198  1.5583745998
C  -1.2108355311  1.0149701068  0.5172148428
C  -0.8117955780 -0.2882646367 -0.2025486070
C   0.6090456136 -0.1684735659 -0.8273539449
C   0.9756741035 -1.4257758290 -1.6411986479
C  -0.0906790839 -1.8087974444 -2.6866255076
C  -1.4635834710 -2.0092879950 -2.0263875201
C  -1.8276240687 -0.7017262000 -1.2830306840
C  -3.3130953396 -0.8699304610 -0.9008969954
C  -3.8935767196 -1.8174357355 -1.9887177857
C  -2.7179020395 -2.1587087475 -2.9525140931
C  -2.7582658008 -1.3190231416 -4.2549487444
C  -3.6270477972 -2.1729190150 -5.1824563922
C  -3.3837037598 -3.5955044024 -4.6871223489
O  -3.6159200956 -4.6460364118 -5.2341308100
O  -2.8351038957 -3.5271031018 -3.4323939447
C  -1.4203549842 -3.2408471670 -1.0963795002
S  -1.4759803018  2.3780005296 -0.7327005675
H   2.8488363353 -0.4903032287  1.9231024485
H   2.6630143207 -1.6815637873  0.6009346099
H   1.2775870419 -1.3009726289  1.6709449912
H   2.6387515707  1.3867917452 -1.4604916207
H   3.4513809134 -0.1631560432 -1.1281668591
H   4.8962776858  1.7986435088 -0.4327817091
H   4.4575562117  0.8167284051  0.9798845834
H   1.6084417447  3.4202875527  1.8097141483
H  -0.1569136389  0.5716622611  2.3262372863
H  -0.4050559376  2.3184460033  2.0891443515
H  -2.1823727644  0.8614199539  1.0293089355
H  -0.8001958051 -1.0761914522  0.5864519833
H   0.5327915070  0.6728221228 -1.5541352773
H   1.9397334968 -1.2605131158 -2.1624305518
H   1.1479059735 -2.2804170567 -0.9552437637
H  -0.1532820386 -0.9891261462 -3.4341600143
H   0.2233519323 -2.7227494603 -3.2346254096
H  -1.7870030171  0.1015220412 -2.0557572492
H  -3.8288444061  0.1096435383 -0.8681828820
H  -3.4140760401 -1.3211643647  0.1082464129
H  -4.7457157273 -1.3682079786 -2.5371499330
H  -4.2623151738 -2.7648098869 -1.5500524528
H  -3.1503515154 -0.2986534706 -4.0817389193
H  -1.7405942662 -1.2217806921 -4.6822592802
H  -3.3902235411 -2.0935840470 -6.2598327843
H  -4.7120473517 -1.9601502862 -5.0703013571
H  -0.4868740937 -3.2518382500 -0.4695292791
H  -2.2994663346 -3.2702041541 -0.3957141624
H  -1.4435721655 -4.1776350451 -1.7187878129
H  -1.7236664315  3.3414634651  0.1976353517
