56
M-V01 cycle 2
C   2.7331270452 -1.5913851744  2.9899744826
C   2.4010041494 -0.8419688642  1.6738429381
C   3.7004535205 -0.1695215492  1.1669305737
C   4.2462477620  0.8316588162  2.1925670218
C   3.2042490529  1.7824579355  2.8017132404
O   3.5453268883  2.7671818828  3.4495739910
C   1.7911338400  1.5057156640  2.4617414361
C   1.4051389005  0.3497809690  1.8678655935
C   0.1529322622  0.0088818080  1.1433178724
C  -0.4554599325 -1.3000762813  1.8002537969
C   0.3233743931 -2.3893651163  0.9435453209
C   1.7951814026 -1.8228582603  0.6015748373
C   2.6957383310 -2.9765658848  0.1480069423
C   2.0936328778 -3.6299709599 -1.1151734191
C   0.6447666538 -4.0907536310 -0.9085614814
C  -0.2402713007 -2.9196269513 -0.3669895559
C  -1.6711527180 -3.4830150826 -0.4247289743
C  -1.6541258531 -4.4645854969 -1.6272134708
C  -0.1930668738 -4.4672314111 -2.1680548403
C  -0.0303688467 -3.5596408172 -3.4128715891
C  -0.3556729908 -4.5119251155 -4.5620558043
C   0.0688869526 -5.8739946618 -4.0205877315
O   0.2866423003 -6.8975958270 -4.6204480909
O   0.1703741045 -5.7854231002 -2.6561049310
C   0.6606562519 -5.3124563114  0.0387862981
S  -0.8131782270 -2.1223533850  3.4601164857
H   2.9223160430 -0.8931856361  3.8267761796
H   3.6379814846 -2.2180900976  2.8513504049
H   1.9219292015 -2.2674628534  3.3276684855
H   3.4817057933  0.3542166468  0.2110198430
H   4.4716145906 -0.9368136896  0.9435082683
H   5.0364570465  1.4750935277  1.7549224160
H   4.7395134484  0.3086006790  3.0396742024
H   1.0823790404  2.3365450847  2.6103601516
H  -0.5523593703  0.8660593409  1.2197142192
H   0.3055643033 -0.1556243237  0.0637345186
H   0.4476362216 -1.1803499027  2.4344465950
H   0.4818639860 -3.2549243936  1.6214548720
H   1.6807996831 -1.2071362975 -0.3176672945
H   3.7126617292 -2.6102360727 -0.1030120734
H   2.8279934199 -3.7183216435  0.9634638022
H   2.1350936791 -2.8752517762 -1.9288607229
H   2.7208736583 -4.4852653939 -1.4434105660
H  -0.1768011956 -2.0942233644 -1.1148926324
H  -2.4191823395 -2.6753303944 -0.5430608765
H  -1.9205287201 -4.0068591444  0.5198071938
H  -2.3731305549 -4.1820744041 -2.4217721357
H  -1.9119704311 -5.4961495543 -1.3201498042
H  -0.6822633870 -2.6672254679 -3.3684481063
H   1.0168488905 -3.2104848576 -3.5032237552
H   0.1574651366 -4.2988261267 -5.5179383271
H  -1.4442825718 -4.5628491853 -4.7787813351
H   1.2396184041 -5.1131428496  0.9593921753
H  -0.3515775555 -5.6318931660  0.3503285695
H   1.1319802524 -6.1681574259 -0.4798624734
H  -2.1781731631 -2.2156325610  3.5037575118
