56
candidate 015 CARTESIAN_THERMAL MIN04
C   2.5543892864 -2.1385629588  3.3116258469
C   2.3933152672 -1.1715559775  2.2055497950
C   3.8363366452 -0.5649912538  1.8456115271
C   4.2611312286  0.3162697974  2.8774511131
C   3.4023555086  1.4136858032  3.3947334383
O   3.6107799545  2.4783871982  3.8724417765
C   1.9263784645  1.1172759601  3.1201123171
C   1.3874019680 -0.0101785154  2.4585767835
C   0.1064675491 -0.1462998727  1.9039261760
C  -0.4555698007 -1.6372975415  2.0605548397
C   0.4490924840 -2.5841198342  1.1262909886
C   1.7674235141 -1.8906517356  0.9673139614
C   2.9070897354 -2.9254270766  0.2347622477
C   2.2313819640 -3.4992667782 -1.1309552481
C   0.9442924847 -4.1329021652 -0.7652132920
C  -0.1962795631 -3.1501546818 -0.1987223650
C  -1.4057158119 -3.8770035212 -0.1791516106
C  -1.3471475382 -4.8045498271 -1.5087368002
C   0.1020354189 -4.5831519609 -2.1581429353
C  -0.0046631147 -3.5588989677 -3.2198373119
C  -0.0523044111 -4.4529897538 -4.4978554702
C   0.4731648620 -5.8161943429 -3.9415266250
O   0.9056501106 -6.7281521877 -4.6869301401
O   0.5670361313 -5.7569614702 -2.7196195834
C   1.1706694229 -5.4214923787  0.1264584768
S  -2.2828984037 -1.6591246884  1.7970007198
H   2.9266866879 -1.5675713633  4.3383420518
H   3.0593193066 -3.0097530239  3.1378902848
H   1.6201461385 -2.5076874180  3.5746056532
H   3.7252605895  0.0052975806  0.9548299261
H   4.6055703670 -1.4510086342  1.6733327681
H   5.1382941236  0.8485472654  2.7985757323
H   4.6398526953 -0.2041913264  3.9101726925
H   1.1725518898  1.9249874696  3.1426422703
H  -0.5995061079  0.4750130258  2.6412820928
H  -0.1089015148  0.2354922324  0.8951851315
H  -0.2283567600 -1.9785638011  3.1960240807
H   0.5450639129 -3.4720828616  1.8187128604
H   1.6782880050 -1.0826208404  0.0482666575
H   3.6446114328 -2.4045990832  0.0686107288
H   3.1852885379 -3.7136687473  0.9217163488
H   2.1361016355 -2.6494309151 -1.6589848993
H   2.9758581822 -4.2568763267 -1.5196765420
H  -0.2371551438 -2.2586358512 -0.9872921985
H  -2.1955843047 -3.1534400661 -0.3449782555
H  -1.7058687306 -4.4633755385  0.6028639588
H  -2.0543457142 -4.6472988163 -2.1472045774
H  -1.5251540563 -5.8533704337 -1.1901250694
H  -0.6694595464 -2.8445670423 -3.2169924655
H   0.9912963440 -3.0418653501 -3.2659324273
H   0.3242954022 -4.1027483001 -5.4798436978
H  -1.2934708980 -4.7249298173 -4.5747861833
H   1.8039865412 -5.1749019166  0.9717830228
H   0.0917812810 -5.8258828646  0.2904416326
H   1.6992664119 -6.1864033059 -0.4512588563
H  -2.4300608848 -1.0023659032  0.6106368134
