56
M-V02 cycle 3
C   2.7042915629 -1.4335384815  2.9768051632
C   2.3505882877 -0.6906015995  1.6636471387
C   3.6237971391 -0.0029562263  1.1072180120
C   4.2220461568  0.9904401813  2.1080298738
C   3.2113930454  1.9152209110  2.7956499040
O   3.6084105746  2.8697358956  3.4571234386
C   1.7769402123  1.6488508063  2.5592911706
C   1.3718921700  0.5038130296  1.9395599934
C  -0.0715259677  0.3256268256  1.4869556298
C  -0.4155939381 -1.1735849648  1.8606110011
C   0.3245645746 -2.2524549408  1.0104648873
C   1.7348637114 -1.6628968221  0.6294006624
C   2.6146182392 -2.8127968768  0.1036118811
C   1.9811505974 -3.4371011118 -1.1578343287
C   0.5333365379 -3.8820122902 -0.9247830078
C  -0.2842391355 -2.7055263108 -0.3172833126
C  -1.7398620279 -3.2043136623 -0.3527795119
C  -1.8001356628 -4.1383414951 -1.5930265240
C  -0.3529944746 -4.1865457083 -2.1717466673
C  -0.1895321170 -3.2501686705 -3.3949643936
C  -0.5840362687 -4.1550813598 -4.5605936542
C  -0.1998092217 -5.5480606611 -4.0697261423
O  -0.0419990623 -6.5623161250 -4.7032715354
O  -0.0548663675 -5.5029642170 -2.7070837713
C   0.5362587126 -5.1334351965 -0.0177358282
S  -1.7123303856 -1.3195673468  3.1720830881
H   2.9127782626 -0.7351343942  3.8087647245
H   3.6026167189 -2.0661794783  2.8276203676
H   1.8870774812 -2.1065387059  3.3104563748
H   3.3532112380  0.5224281033  0.1659062144
H   4.3833928130 -0.7663820202  0.8429169606
H   4.9832109221  1.6428378855  1.6329629119
H   4.7683621285  0.4579329264  2.9165008664
H   1.0728779808  2.4617853936  2.8067430274
H  -0.8395518029  1.0910311103  1.6900267986
H   0.0584722208  0.3368534462  0.3783885870
H   0.4027404369 -1.3058539853  2.6085132542
H   0.3901527852 -3.1497412270  1.6603560326
H   1.5554842642 -1.0180396929 -0.2626281585
H   3.6200764358 -2.4365244825 -0.1711215118
H   2.7737206196 -3.5704841307  0.8991902203
H   2.0048656018 -2.6564783163 -1.9471211312
H   2.5951304231 -4.2842130782 -1.5308961199
H  -0.2028884596 -1.8565535840 -1.0341931503
H  -2.4574918180 -2.3630613108 -0.4098563188
H  -1.9796948513 -3.7599721173  0.5762434764
H  -2.5233624321 -3.7907156331 -2.3573427205
H  -2.1007790253 -5.1677276320 -1.3193947591
H  -0.8049062418 -2.3353496992 -3.3058633937
H   0.8669861294 -2.9382391449 -3.5080673609
H  -0.0872821421 -3.9348067171 -5.5234891907
H  -1.6789688957 -4.1560081962 -4.7492225145
H   1.1257229492 -4.9722316977  0.9042095754
H  -0.4787701676 -5.4457462323  0.2913825357
H   0.9883652264 -5.9802473526 -0.5670706314
H  -1.0089962992 -0.5933258278  4.0920794977
