56
candidate 010 CARTESIAN_THERMAL MIN02
C   2.0700522666 -0.8464281467  1.1199711118
C   1.7336746888  0.2850472985  0.1721908682
C   2.9531107440  0.7160593608 -0.6555323871
C   4.0414260641  1.4777810112  0.1457717725
C   3.4246142682  2.6717437346  0.8833514987
O   4.0896520896  3.6752042775  1.1236231884
C   1.9850071755  2.5593187519  1.2735048354
C   1.2510975564  1.4674323632  0.9753725099
C  -0.1676813520  1.3659588699  1.5329935007
C  -1.2037835063  1.0043445522  0.5260938868
C  -0.8307762421 -0.2906218911 -0.2350783316
C   0.6221063510 -0.1521722667 -0.8376798087
C   0.9790125769 -1.4070159161 -1.6638475098
C  -0.0801330664 -1.8380807593 -2.7212454941
C  -1.4688685568 -2.0181442510 -2.0080813086
C  -1.7885500546 -0.6942962986 -1.3080869419
C  -3.3090570403 -0.8697876177 -0.8731399428
C  -3.8760189252 -1.8007107223 -1.9824220944
C  -2.7291847735 -2.1560927415 -2.9544451534
C  -2.7043977868 -1.3223158107 -4.2153147664
C  -3.6160674196 -2.1490615976 -5.1582791876
C  -3.3727630106 -3.5706238125 -4.6396215475
O  -3.6274092836 -4.6299042955 -5.2347333948
O  -2.8053687278 -3.5292943327 -3.4373295780
C  -1.4108260249 -3.2233689651 -1.0520688415
S  -1.4582444035  2.3588076628 -0.7308241144
H   2.7369594305 -0.4971352366  1.9515195697
H   2.5899503758 -1.6860766169  0.6076628026
H   1.1775835018 -1.2568198200  1.6245829671
H   2.6442032273  1.3749321482 -1.4590871626
H   3.4082637345 -0.1613035870 -1.1509399452
H   4.9172439706  1.7940369324 -0.4166050766
H   4.4281173358  0.8106392368  0.9555555827
H   1.6228619813  3.4004004017  1.8132622297
H  -0.1981874237  0.5421025965  2.3461495808
H  -0.3907525220  2.2974102410  2.0810568421
H  -2.1911776124  0.8349224227  1.0668672481
H  -0.7729699231 -1.0895566533  0.5654213575
H   0.4860000244  0.6891255731 -1.6411894086
H   1.9782292019 -1.2246195261 -2.1925087244
H   1.1590686945 -2.2723256808 -1.0007901159
H  -0.1362574610 -1.0322274098 -3.4253301161
H   0.1791329834 -2.7472224561 -3.2206804481
H  -1.7508513096  0.0847463666 -2.1115578491
H  -3.8171170265  0.1157020660 -0.8234965890
H  -3.3694418600 -1.3137755317  0.0986067141
H  -4.7456292057 -1.3415766285 -2.4949171540
H  -4.2328020438 -2.7350052995 -1.5555528135
H  -3.1165766165 -0.2735249231 -4.0973290609
H  -1.6952987391 -1.2580393252 -4.6460658194
H  -3.4362042784 -2.0674015980 -6.2511768777
H  -4.6626954798 -1.9193129496 -4.9789709143
H  -0.5996195310 -3.1411800025 -0.3102688379
H  -2.3448843224 -3.3707980049 -0.5417459314
H  -1.2551498580 -4.1393451012 -1.6178615327
H  -1.6616217611  3.3236638593  0.1880603498
