56
candidate 007 CARTESIAN_THERMAL MIN01
C   2.0987074432 -0.6193825225  1.7909647326
C   1.6748162755 -0.2553777051  0.2631545647
C   2.8129345565  0.6233186966 -0.2708317299
C   2.7952555371  2.0335317434  0.1339526507
C   1.5855157263  2.7577624424  0.0526556838
O   1.3963386640  3.9860511255 -0.1961116165
C   0.3639743642  1.8620562881  0.0612249676
C   0.2908572019  0.5333856782  0.3590719181
C  -0.8427648393 -0.2210525546  0.5820532843
C  -1.0628241253 -1.4553054067 -0.2557879395
C   0.2139314372 -2.3396465175 -0.2270767564
C   1.4439420184 -1.5315321926 -0.6406255592
C   2.8173638394 -2.4719628604 -0.5399139315
C   2.5467231405 -3.6994691846 -1.4871518912
C   1.3590291130 -4.4791967823 -0.9912288727
C   0.0407822324 -3.5947997266 -1.1486385213
C  -1.0528916017 -4.5075865208 -1.0803445967
C  -0.6326412469 -5.8407867830 -1.5694915726
C   0.8657076483 -5.6621131374 -2.0325875786
C   0.9610825030 -5.3848940887 -3.4496043330
C   1.2219497549 -6.7801098781 -4.1048420327
C   1.7731863381 -7.5845240530 -3.0191360254
O   2.4078746202 -8.6279875025 -2.9419203272
O   1.5531370206 -6.8316914784 -1.8214915934
C   1.5704520971 -5.1346532464  0.4254440437
S  -1.4846704496 -0.9002877169 -2.0374510750
H   2.0925477813  0.3287083054  2.3281671111
H   2.9711382896 -1.1092654438  1.9174122750
H   1.4298318293 -1.2963439786  2.1701113969
H   2.5842541924  0.6461881113 -1.3347138738
H   3.8197232939  0.0936886938 -0.1591592490
H   3.5264115782  2.6497244209 -0.4149687689
H   3.1687825388  2.1105030493  1.3293482358
H  -0.6567702178  2.3777777883  0.0862117458
H  -0.8248816141 -0.6370931174  1.7625065748
H  -1.8579212136  0.4496182560  0.5763352147
H  -1.8353075494 -2.0446517251 -0.1500757737
H   0.1985748503 -2.6899908116  0.8529111562
H   1.4192589142 -1.1614881488 -1.6601771212
H   3.5010456765 -1.9052476727 -0.8076612690
H   3.0435092237 -2.7651098192  0.4871545999
H   2.4689647445 -3.3327209661 -2.5833001320
H   3.5126873301 -4.3845675832 -1.3140178799
H   0.0295347990 -3.1741863458 -2.2131110566
H  -1.8777869206 -4.0759509589 -1.4338674327
H  -1.4620868126 -4.6453150399  0.0160743806
H  -1.1893544571 -6.1796294091 -2.5968186135
H  -0.7787022658 -6.6398842404 -0.8294744513
H   0.2702361912 -4.8259646895 -4.0025043198
H   1.9499409183 -4.8072324993 -3.6308640800
H   1.7715548590 -6.8526036452 -5.0024644885
H   0.0823711430 -7.3041491304 -4.3889422324
H   1.8445231801 -4.3430580116  1.1792918259
H   0.5693835923 -5.6297421684  0.6375276745
H   2.3970759660 -5.8668605463  0.4269569059
H  -0.7131133380  0.1580839223 -2.0985487052
