56
TSL_RSH point 16; constrained PBE/3-21G gas-phase geometry
C   2.9225330199 -1.2375713573  1.9770974543
C   2.6739876418  0.1125900964  1.2336587286
C   3.9904480386  0.5860839526  0.5441516884
C   5.0887546737  0.9672574228  1.5612702712
C   4.6368517390  2.0614261645  2.5328914121
O   5.4204450886  2.8814630703  3.0737505684
C   3.1927816747  2.0158061940  2.8409626943
C   2.2982183837  1.1474056566  2.2982040636
C   0.8827952188  1.0928294245  2.8259712557
C  -0.1634122105  1.0811399216  1.6951800049
C   0.0873113733 -0.1203943642  0.7628564458
C   1.5187379489 -0.0396117124  0.1476373749
C   1.7712915925 -1.2521212042 -0.8015085661
C   0.6428393318 -1.5085442675 -1.8445715649
C  -0.7308213208 -1.6467458988 -1.1468202083
C  -0.9608422686 -0.3107174237 -0.3645607889
C  -2.4604443573 -0.3497902168  0.0330411451
C  -3.1583597452 -1.1344655820 -1.1347450275
C  -2.0260374577 -1.7327730131 -2.0435846133
C  -1.9608758182 -1.0544235099 -3.4313673630
C  -3.0065453031 -1.8264617871 -4.2584102342
C  -3.0141084441 -3.2400042069 -3.6557861774
O  -3.4760129967 -4.2847283447 -4.1133594587
O  -2.3919922016 -3.1865012035 -2.3729308487
C  -0.7866803113 -2.8972603027 -0.2333442598
S  -0.0561966614  2.7703548350  0.7633177241
H   3.5524754313 -1.0705507911  2.8639194070
H   3.4359114226 -1.9517189496  1.3148160682
H   1.9749969902 -1.6905373367  2.3084245421
H   3.7547060020  1.4592043993 -0.0899845526
H   4.3702168101 -0.2170588348 -0.1082446952
H   6.0108299829  1.2997774709  1.0588388604
H   5.3495319883  0.0767077811  2.1646844318
H   2.8629212072  2.7199188032  3.6100533825
H   0.7531274474  0.1516686519  3.3981465410
H   0.7035599882  1.9335074835  3.5136912677
H  -1.1764329908  1.0185553883  2.1221614818
H   0.0102450077 -1.0035307482  1.4253357208
H   1.5232261832  0.8917003228 -0.4544525708
H   2.7260893258 -1.1108933913 -1.3353772389
H   1.8722429588 -2.1631383375 -0.1911144122
H   0.6056773065 -0.6512657658 -2.5405279055
H   0.8857506565 -2.4150869925 -2.4259444306
H  -0.8352034299  0.5279211018 -1.0772069710
H  -2.8717720061  0.6647574960  0.1515263143
H  -2.5922203120 -0.8915205665  0.9840803669
H  -3.8215495850 -0.4829559258 -1.7259606024
H  -3.7532215460 -1.9729677800 -0.7470060555
H  -2.1825498850  0.0196987003 -3.3525185232
H  -0.9617757625 -1.1847560060 -3.8735278073
H  -2.7774445094 -1.8763055315 -5.3315816892
H  -4.0156249888 -1.3936671087 -4.1385864490
H  -0.0224492360 -2.8723046118  0.5555323720
H  -1.7768131543 -2.9895734662  0.2376121795
H  -0.6368914785 -3.7920952921 -0.8544095818
H  -1.3668983561  3.1309239275  1.0299666852
