56
candidate 063 CONTROLLED_LOCAL MIN02
C   2.3534671417 -0.2907169641  1.3262071870
C   1.8511689245  0.8082326459  0.3550381474
C   3.0530816067  1.5010567724 -0.3350249715
C   3.8691437474  2.4006923863  0.5922551464
C   3.0032360953  3.4448063063  1.2840774147
O   3.4404894096  4.5354352259  1.6420060135
C   1.6121282762  3.0331273583  1.5538314277
C   1.0780596700  1.8382991016  1.1813820752
C  -0.2972492042  1.4412180316  1.6458417890
C  -1.1879735040  0.9281576393  0.5107315707
C  -0.4833442494 -0.2170082753 -0.2356871075
C   0.9139114824  0.2102910890 -0.7568724952
C   1.5864523903 -0.9163409209 -1.5699318053
C   0.6917205267 -1.4771830353 -2.6882717362
C  -0.6570347353 -1.9524012564 -2.1278778193
C  -1.3202375046 -0.7646154581 -1.3941106458
C  -2.7630634523 -1.2258245951 -1.1190025046
C  -3.0815099126 -2.2057820094 -2.2799475576
C  -1.7883672534 -2.2910390504 -3.1454397189
C  -1.8796576356 -1.4047380205 -4.4116581728
C  -2.5229404582 -2.3473847709 -5.4270776916
C  -2.0486083800 -3.7256537477 -4.9748635730
O  -2.0341916537 -4.7649418412 -5.5871514399
O  -1.6150334962 -3.6309907029 -3.6772602269
C  -0.4419206281 -3.1774239500 -1.2143410485
S  -1.6123575572  2.0998448143 -0.8417473446
H   2.9183469222  0.1551015676  2.1680701029
H   3.0257625044 -1.0023388493  0.8084280259
H   1.5187538489 -0.8736575719  1.7632770044
H   2.6551287026  2.1192521956 -1.1690163201
H   3.7119661079  0.7367322341 -0.7937980094
H   4.6838964854  2.9257702118  0.0561610359
H   4.3606508696  1.8037400774  1.3933225728
H   1.0175650264  3.7510541466  2.1426747039
H  -0.2007318587  0.5647791820  2.3289892866
H  -0.7511988113  2.2548607232  2.2461245662
H  -2.1831367717  0.6549137006  0.9161332670
H  -0.3579335511 -1.0285565122  0.5172305044
H   0.7235782857  1.0520550736 -1.4613725066
H   2.5251688671 -0.5379671901 -2.0210262348
H   1.8874114382 -1.7401486996 -0.8913242716
H   0.5236482476 -0.6707384658 -3.4323858174
H   1.2122141278 -2.3025722457 -3.2185650272
H  -1.3814589962  0.0584957253 -2.1435413734
H  -3.4583896010 -0.3648732539 -1.0800892609
H  -2.8294201019 -1.7414488011 -0.1383740636
H  -3.9479902721 -1.8794735313 -2.8885611118
H  -3.3199750646 -3.2207475613 -1.9086116143
H  -2.4496583632 -0.4740001688 -4.2312012494
H  -0.8676891743 -1.1203619691 -4.7593851737
H  -2.2459214746 -2.1707276981 -6.4827542815
H  -3.6327807040 -2.3405183448 -5.3737192579
H   0.2759746331 -2.9642055023 -0.4007146998
H  -1.3808135668 -3.5240491726 -0.7421717973
H  -0.0460740756 -4.0212315516 -1.8103568732
H  -1.9005420923  3.1668412863  0.0029748170
