56
TSL_RSH 2D constrained phi=300 psi=-60
C   2.9275558699 -0.9484102596  1.8196054173
C   2.3828046256  0.1143739736  0.8149417659
C   3.5625482418  0.7858490405  0.0513117554
C   4.5468639114  1.5166855604  0.9918906422
C   3.8600538039  2.5245847198  1.9258843873
O   4.4729074444  3.4734201652  2.4792899483
C   2.4240944027  2.2664936860  2.1550654536
C   1.7211626860  1.2103854514  1.6645873061
C   0.2910839481  0.9811347617  2.1046159568
C  -0.6119428879  0.5423615868  0.9410887552
C  -0.0680016196 -0.7579351446  0.3246308666
C   1.3763297145 -0.5408082993 -0.2302110148
C   1.9066303853 -1.8792615201 -0.8256273703
C   0.9356936227 -2.5620763999 -1.8431157729
C  -0.4794190632 -2.7589697287 -1.2438346793
C  -0.9644963283 -1.3445144638 -0.7924049297
C  -2.4773298394 -1.5193518438 -0.5119134579
C  -2.9370743884 -2.6061889854 -1.5415424374
C  -1.6451969694 -3.1999770657 -2.2074717410
C  -1.5226160914 -2.8181598642 -3.7023568308
C  -2.4825262179 -3.8092880951 -4.3884556898
C  -2.4221189345 -5.0685711973 -3.5013343549
O  -2.8390765163 -6.2039517302 -3.7267767828
O  -1.7972670176 -4.7193972245 -2.2663217044
C  -0.4676213477 -3.7943277536 -0.0925704920
S  -0.6291170463  1.8934326648 -0.4265176232
H   3.4737214249 -0.4493139908  2.6337996970
H   3.6107126490 -1.6479690805  1.3129626426
H   2.1018747320 -1.5248624039  2.2666957086
H   3.1314024181  1.5155218923 -0.6563673547
H   4.1069818633  0.0214620542 -0.5288915997
H   5.3212687281  2.0547538828  0.4212685843
H   5.0757006711  0.7827907324  1.6298884934
H   1.9313655717  2.9930890272  2.8077843420
H   0.2707779101  0.1707807850  2.8622044019
H  -0.0998894763  1.8919953786  2.5895584485
H  -1.6504967407  0.4026956751  1.2777371662
H  -0.0353556677 -1.4915168019  1.1529791330
H   1.2827054767  0.1877361254 -1.0585748697
H   2.8699072970 -1.6977958283 -1.3336051753
H   2.1026992869 -2.5841643870 -0.0019109849
H   0.8614493570 -1.9175437034 -2.7369590811
H   1.3675503447 -3.5302847812 -2.1543443532
H  -0.8730298458 -0.6767183189 -1.6717908306
H  -3.0188573550 -0.5703189745 -0.6421578298
H  -2.6392791950 -1.8769728348  0.5185406108
H  -3.6030127444 -2.1801403149 -2.3076885642
H  -3.4642314753 -3.4305746767 -1.0412716466
H  -1.7775111760 -1.7633640053 -3.8773410183
H  -0.4941568451 -3.0067911114 -4.0472653700
H  -2.2150093024 -4.0582713490 -5.4242087774
H  -3.5216206268 -3.4365879128 -4.3785737693
H   0.3330431401 -3.5934437126  0.6343232802
H  -1.4310992485 -3.7996588979  0.4414111360
H  -0.3213603558 -4.7932063213 -0.5275984274
H  -1.1361236127  2.8868517258  0.3944765009
