56
TSL_RSH 2D constrained phi=180 psi=180
C   2.1366866987 -0.6358200450  2.2092510684
C   2.0148122240 -0.3309870732  0.6869879735
C   3.2733920891  0.4609731481  0.2183932507
C   3.4451003119  1.7738009071  1.0263596087
C   2.1595938527  2.6213230680  1.1870640624
O   2.1926467767  3.8143114465  1.5808564045
C   0.9129520594  1.9400216373  0.7808523049
C   0.8360854869  0.6190156386  0.4693941743
C  -0.3353357261  0.0142587204 -0.2569194255
C  -0.7479462673 -1.3874795813  0.2730060346
C   0.4732403208 -2.3918756663  0.3780545928
C   1.7643571029 -1.6560547777 -0.1469701931
C   3.0330374192 -2.5562428146 -0.2241283640
C   2.7719035276 -3.9778824985 -0.7820997563
C   1.6465339955 -4.6667058881  0.0122667601
C   0.3342253524 -3.8250582500 -0.2252335271
C  -0.7623006767 -4.7587758062  0.3613688858
C  -0.2827561985 -6.2086990919  0.0183797004
C   1.2128239101 -6.1090562228 -0.4314577345
C   1.4193795818 -6.4786000260 -1.9212455461
C   1.4505949969 -8.0149416734 -1.8854647525
C   2.1384711478 -8.3382177900 -0.5492723543
O   2.6925177277 -9.3717788710 -0.1776921221
O   2.0024945935 -7.1996298963  0.3030138432
C   2.0278075664 -4.8028049998  1.5099819285
S  -2.2293282556 -1.7651744690 -0.9013488316
H   2.1809863143  0.3050252257  2.7761539190
H   3.0513812017 -1.2162725572  2.4140183846
H   1.2679865726 -1.1971150077  2.5828949456
H   3.1446744499  0.6977067392 -0.8537054609
H   4.1828951783 -0.1523550851  0.3271380832
H   4.2160471686  2.4192108981  0.5739845044
H   3.8045093536  1.5350397545  2.0441481605
H   0.0377017561  2.5862640869  0.6747860410
H  -1.2091118031  0.6851289780 -0.2270385875
H  -0.0491947538 -0.0977120197 -1.3214874264
H  -1.1855451040 -1.2521080560  1.2736799443
H   0.6025677805 -2.5674341801  1.4585185894
H   1.5474454017 -1.3573387017 -1.1920245553
H   3.7603589181 -2.0559082637 -0.8867355530
H   3.5083470351 -2.6393377785  0.7657820369
H   2.4766366442 -3.8969261359 -1.8442091647
H   3.7048300919 -4.5660300060 -0.7290887718
H   0.1795819773 -3.7332500367 -1.3177182391
H  -1.7572899709 -4.5789329841 -0.0713297465
H  -0.8324418157 -4.6133978904  1.4513533119
H  -0.8938532398 -6.6426930342 -0.7886853518
H  -0.3380830914 -6.8742332037  0.8906102374
H   0.6172250001 -6.0707004398 -2.5529471748
H   2.3895997994 -6.0949467184 -2.2729005244
H   1.9660694235 -8.4951929541 -2.7267234183
H   0.4203022982 -8.4133046731 -1.8303958591
H   2.3171902614 -3.8442033318  1.9597286541
H   1.1958010086 -5.2291965017  2.0903975878
H   2.8673158199 -5.5089512117  1.5819028662
H  -2.5681694781 -3.0082994436 -0.4053398723
