56
candidate 018 CARTESIAN_THERMAL MIN04
C   2.4845537480 -2.1080070419  3.3347861666
C   2.4305954983 -1.1918731610  2.1651096006
C   3.7712974868 -0.5956235783  1.8253621206
C   4.3386552642  0.3523358283  2.9834789308
C   3.2960308231  1.4096478708  3.3496189716
O   3.6600892856  2.4627634250  3.8657031094
C   1.8680007626  1.1468991438  3.0500457152
C   1.5100950026 -0.0198478206  2.4267630391
C   0.0204139386 -0.1691641926  2.0370649323
C  -0.4314621054 -1.6138077870  2.0417604477
C   0.4036733456 -2.6075656082  1.1275867922
C   1.8642085861 -1.9244286316  0.9042706165
C   2.8216464279 -2.8850935616  0.2093589972
C   2.2595206177 -3.4982119431 -1.0299286804
C   0.8645690281 -4.1451240258 -0.8155443059
C  -0.0641038915 -3.1166759545 -0.2100652861
C  -1.4729276413 -3.8838808128 -0.2538805059
C  -1.3052933708 -4.8228471681 -1.5073973463
C   0.0460697900 -4.5530073954 -2.0310945200
C   0.0808210485 -3.5765637010 -3.2619942510
C  -0.1493565941 -4.4824156418 -4.5018151344
C   0.5248271074 -5.7786162246 -4.0099184163
O   0.8493150304 -6.7290405883 -4.7173829069
O   0.6908188276 -5.7703526198 -2.6234586616
C   1.0823184321 -5.3881485609  0.0706531015
S  -2.2656320903 -1.6686239741  1.8199013772
H   2.8635165815 -1.5895153113  4.2836983201
H   3.2021791646 -2.9656056238  3.1029851157
H   1.5089059886 -2.5421317015  3.7210937576
H   3.7723496450 -0.0388627259  0.8893830689
H   4.5026448696 -1.4025090307  1.6537669807
H   5.3129423556  0.8421984373  2.7009724014
H   4.5374371947 -0.2267372581  3.8597342426
H   1.2190419583  1.9626488718  3.3273979965
H  -0.7052138744  0.4545820434  2.6154624366
H  -0.0107697873  0.2022048530  0.8840261467
H  -0.3789290558 -1.9481168527  3.1056066813
H   0.6229446051 -3.5087055853  1.7739573569
H   1.5983387896 -1.1313929893  0.1836888017
H   3.8216629359 -2.3463508977 -0.0094862909
H   3.0725122206 -3.7124228059  0.8906366972
H   2.1723929223 -2.6629636580 -1.7673835962
H   2.9117902406 -4.2040446678 -1.5202804323
H  -0.0991482581 -2.2665139909 -0.8046793854
H  -2.3095187186 -3.1794800514 -0.3989824620
H  -1.6591031544 -4.4236651247  0.5949029187
H  -2.1623163672 -4.6761519474 -2.2334409316
H  -1.3373412478 -5.8961172688 -1.2303672456
H  -0.7677022789 -2.7935922496 -3.0764327798
H   1.0460697417 -3.0435480375 -3.3381568389
H   0.2379390963 -4.1191578801 -5.4532117473
H  -1.1736609972 -4.6788467710 -4.6257609648
H   1.6751541674 -5.1823692730  0.9389053296
H   0.1661627745 -5.8500414523  0.4383483538
H   1.6206201042 -6.1425579044 -0.5159771123
H  -2.2607668711 -1.0390477864  0.5984697413
