56
candidate 053 CONTROLLED_LOCAL MIN01
C   2.0082244460  0.1105974656  1.1034860073
C   1.2198692722  0.4823092000 -0.1779639936
C   1.8938095284  1.6847925959 -0.8866919452
C   1.6961506957  3.0220009509 -0.1736499981
C   0.2227237171  3.3321528868  0.0477719143
O  -0.2188891582  4.4771479214  0.0837598253
C  -0.6379489024  2.1541203795  0.2828253609
C  -0.2013812118  0.8640201727  0.2421890266
C  -1.1131610165 -0.2601198399  0.6554479504
C  -1.1873901897 -1.3588904804 -0.4126075833
C   0.2280308571 -1.8741048251 -0.7367098962
C   1.1575950434 -0.7213858189 -1.1898740993
C   2.5540882971 -1.2330507662 -1.6018961156
C   2.5008095065 -2.3790879075 -2.6258457623
C   1.6315167296 -3.5357471509 -2.1115030146
C   0.2252853739 -2.9787457322 -1.7931152868
C  -0.6473124705 -4.2271709983 -1.5632033477
C   0.0013191192 -5.3200284952 -2.4546942967
C   1.2419855925 -4.6555530286 -3.1229837492
C   0.9485340211 -4.2136370555 -4.5773633831
C   1.2935516769 -5.4677943541 -5.3782698159
C   2.3777388534 -6.1344865272 -4.5360207741
O   3.1755555925 -6.9820828957 -4.8530085101
O   2.3216093759 -5.6161398663 -3.2676159073
C   2.3088068467 -4.1959743145 -0.8918991401
S  -1.6721789844 -0.9262679138 -2.1470310032
H   1.9540651225  0.9265440600  1.8506538267
H   3.0770944259 -0.0658846620  0.8740976193
H   1.6122196674 -0.8044789767  1.5860944805
H   1.4655301244  1.7628666738 -1.9102353883
H   2.9759099884  1.4824988959 -1.0152881459
H   2.1509190014  3.8652396703 -0.7293398969
H   2.1810362579  3.0114868300  0.8285871877
H  -1.6782100556  2.3818081105  0.5690412662
H  -0.7840296317 -0.6313111569  1.6530031743
H  -2.1533814470  0.1016454676  0.7660943495
H  -1.9739787730 -2.0876810390 -0.1305835268
H   0.6151864772 -2.3016402403  0.2172127225
H   0.6804249895 -0.3119719579 -2.1108155067
H   3.1441162161 -0.3990351031 -2.0312494798
H   3.1110041692 -1.5667514255 -0.7028842735
H   2.0707516459 -1.9791845672 -3.5678132675
H   3.5275743722 -2.7302413143 -2.8623309290
H  -0.1403225757 -2.4923176263 -2.7258973452
H  -1.7067923195 -4.0398075548 -1.8266398981
H  -0.6306427019 -4.5284945347 -0.4949115892
H  -0.6967682678 -5.7195449365 -3.2167425293
H   0.3477038880 -6.1856013770 -1.8583135717
H  -0.0928507395 -3.8637133452 -4.7064197295
H   1.6225129870 -3.3870270649 -4.8745847602
H   1.6581461197 -5.2905725798 -6.4069089562
H   0.4413382756 -6.1771798198 -5.4502817675
H   2.5162059031 -3.4639303504 -0.0893359344
H   1.6922915646 -5.0015245178 -0.4496183397
H   3.2688675242 -4.6519996281 -1.1991330708
H  -0.7924512503  0.1071501783 -2.2893899234
