56
exact QM-native source /Users/yazan/totah-lab/analysis/mettl7-phase2/execution-unit-05O/qm-native-minima/MIN01/trajectory-005.xyz
C   2.103605360500 -0.567018650600  1.773060269300
C   1.714853862600 -0.242752455800  0.308299979100
C   2.818662268600  0.617801571500 -0.358981459100
C   2.876165828400  2.058458646500  0.145989879100
C   1.533779863100  2.757986651300 -0.012660786500
O   1.444316583200  3.968853913400 -0.194985644700
C   0.345552386300  1.890689303200  0.130612384700
C   0.404265232800  0.543927103400  0.335727710600
C  -0.852445817600 -0.227338283400  0.637234825800
C  -1.016414526100 -1.443607612000 -0.281429929500
C   0.232322310300 -2.339319331200 -0.211906774800
C   1.523989914600 -1.551807862900 -0.541646599900
C   2.763676311900 -2.471324399000 -0.514758512200
C   2.613218935900 -3.711873075700 -1.410668152900
C   1.352841720500 -4.507014184100 -1.037684887900
C   0.135362565400 -3.558933913700 -1.130413282400
C  -1.091334634800 -4.484095963000 -1.021166810000
C  -0.611324128900 -5.831551301800 -1.624033632400
C   0.881547234800 -5.623794808100 -2.017874011100
C   1.045673388600 -5.342185082200 -3.531461633400
C   1.178063146200 -6.747354018400 -4.115589641300
C   1.815707203300 -7.541472911500 -2.979019361100
O   2.382645121600 -8.605639613400 -3.017994261700
O   1.640747321800 -6.844246614500 -1.811106913200
C   1.526735982900 -5.131836819500  0.362929793900
S  -1.505683326800 -0.924502584700 -1.989509850800
H   2.114978477800  0.351857346900  2.391350638100
H   3.111752484700 -1.022088572800  1.825038762600
H   1.390635914500 -1.272029158900  2.244682381900
H   2.622467775700  0.634708189100 -1.453505954900
H   3.804582996000  0.129242779400 -0.225305698200
H   3.647227169800  2.657006723000 -0.377581321900
H   3.137647548700  2.090406192600  1.227656015100
H  -0.623847715500  2.416058801700  0.134512533800
H  -0.789385950000 -0.606670433300  1.684637976800
H  -1.736265147900  0.434805303900  0.579255719700
H  -1.898248938200 -2.029420829100  0.051265324200
H   0.286130885300 -2.698803098200  0.842313044000
H   1.397811207100 -1.209562641200 -1.595443622600
H   3.660931173500 -1.903964506200 -0.833331730000
H   2.962304624500 -2.792781923600  0.527765227300
H   2.542514344800 -3.370196240200 -2.464374965900
H   3.519194125700 -4.350008165400 -1.337686873000
H   0.136290694800 -3.145286241100 -2.164215456900
H  -1.964111233600 -4.065698690300 -1.559777573000
H  -1.397817868700 -4.612778192100  0.037994314200
H  -1.214751722800 -6.147675988500 -2.497863069700
H  -0.666277245500 -6.655327649400 -0.886987742900
H   0.201403765100 -4.757185313600 -3.941973778400
H   1.975929293500 -4.772568735700 -3.721264406600
H   1.790596385300 -6.826065690800 -5.032674147300
H   0.193773960400 -7.212477270800 -4.338085168600
H   1.771520330100 -4.370006624900  1.126459718500
H   0.617290947300 -5.659942062700  0.707171635600
H   2.346908371500 -5.874058062000  0.341594750500
H  -0.609411386500  0.099823440200 -2.095353318500
