56
candidate 014 CARTESIAN_THERMAL MIN02
C   2.0680065080 -0.8396080535  1.1482505031
C   1.7398814934  0.2713524467  0.1027480814
C   2.9276054762  0.7160397063 -0.6001540151
C   4.1004605522  1.4904448978  0.1602345454
C   3.3926565423  2.6717169993  0.8003196789
O   4.1207713707  3.6879253650  1.1778172582
C   1.9422862998  2.5832219872  1.2301581140
C   1.2931378569  1.4531037351  1.0576798795
C  -0.1559248080  1.3629844852  1.5426582789
C  -1.2143378680  1.0137819914  0.4377963358
C  -0.8662855051 -0.3013678641 -0.1987861393
C   0.6703403047 -0.1492395267 -0.9010629126
C   0.9527563150 -1.3909350654 -1.6026025733
C  -0.0534406092 -1.8369412224 -2.6882149135
C  -1.5323460450 -2.0056910602 -2.0726690770
C  -1.7679081696 -0.6699509310 -1.2460804351
C  -3.3102942045 -0.8928893630 -0.9498386798
C  -3.8678354360 -1.8110958404 -1.9335436116
C  -2.7523561202 -2.1527702591 -2.9471867516
C  -2.6447835546 -1.3391389091 -4.3062081786
C  -3.6556239395 -2.1534360960 -5.1232999112
C  -3.3518752537 -3.5626191879 -4.7042057175
O  -3.6809497493 -4.6365834542 -5.1624552169
O  -2.7737751932 -3.5239787860 -3.4055729308
C  -1.4083409280 -3.2059492069 -1.1531299358
S  -1.4653385502  2.3380979955 -0.7032597377
H   2.7165132104 -0.5068659674  1.8434276921
H   2.6636660332 -1.6813006158  0.6711830647
H   1.1621910338 -1.2766249296  1.6440849753
H   2.6907512967  1.3713442681 -1.5813575850
H   3.3289757068 -0.1506079049 -1.0834382506
H   4.9322328849  1.7949881779 -0.4911451471
H   4.4257194835  0.8247602874  1.0529050676
H   1.6248037668  3.4266637991  1.8253961087
H  -0.2229020701  0.5214723239  2.2169416291
H  -0.3218779756  2.2907770521  2.1248343805
H  -2.2335510048  0.8418841642  0.9699170923
H  -0.7345293871 -1.1050321924  0.6382912721
H   0.4317645116  0.6893348721 -1.5902974546
H   2.0191643499 -1.2093631145 -2.2854134678
H   1.1730738454 -2.2715155314 -0.9215108237
H  -0.1520917699 -1.0169545987 -3.5294291807
H   0.1452457761 -2.7178304818 -3.1539470370
H  -1.6904948402  0.0593646961 -2.0871883465
H  -3.8454877209  0.1027338170 -0.9389373785
H  -3.3300527524 -1.3129247460  0.1540852907
H  -4.8196764803 -1.3636072829 -2.5798883932
H  -4.2105072758 -2.7432288349 -1.4503586685
H  -3.1099497628 -0.2659561809 -4.0375623516
H  -1.6838260448 -1.2629613565 -4.7731111052
H  -3.4542839965 -2.0584625748 -6.2051209231
H  -4.5850478680 -1.8975730244 -5.0733274880
H  -0.6467311084 -3.1651846361 -0.2369031338
H  -2.3165127561 -3.3816006244 -0.5123689165
H  -1.3172098672 -4.1350127205 -1.7315029807
H  -1.6312194363  3.3035238629  0.2694309561
