56
candidate 054 CONTROLLED_LOCAL MIN02
C   1.7118944194 -0.8892873803  1.7200203735
C   1.6628349388  0.2966200860  0.7228344849
C   3.0914297994  0.6403137117  0.2311253330
C   3.9734206351  1.2974716803  1.2919672827
C   3.3233477640  2.5390226523  1.8874036246
O   3.9765426325  3.4768527665  2.3374990851
C   1.8490958407  2.5136111181  1.9453973184
C   1.0781647830  1.5009419068  1.4640152122
C  -0.4052390668  1.4868020499  1.7173603999
C  -1.2264688394  1.2206639982  0.4525093612
C  -0.7490037478 -0.0758551962 -0.2228522210
C   0.7714833352 -0.0388200146 -0.5282862738
C   1.2328433943 -1.3094253744 -1.2735280574
C   0.3927656668 -1.6204424413 -2.5238524081
C  -1.0997624492 -1.7162762089 -2.1742953045
C  -1.5246481495 -0.3897646551 -1.5042755138
C  -3.0620661449 -0.4491488391 -1.4498283029
C  -3.4569749749 -1.3176015507 -2.6743098264
C  -2.1213890953 -1.7495054557 -3.3512387418
C  -1.7920330058 -0.8798953474 -4.5891706657
C  -2.5078819075 -1.6250466583 -5.7142406008
C  -2.4843772343 -3.0765213081 -5.2433024168
O  -2.6565845655 -4.0866607099 -5.8798454549
O  -2.2329699578 -3.0911361862 -3.8952284194
C  -1.3495544920 -2.9478496634 -1.2785638313
S  -1.2978635385  2.8068766343 -0.5156181495
H   2.2468946567 -0.6035182713  2.6466741714
H   2.2399556402 -1.7576224027  1.2799889452
H   0.6989759874 -1.2264039576  2.0165751274
H   2.9952543865  1.3360170390 -0.6307452111
H   3.5842871127 -0.2748437394 -0.1540655218
H   4.9663109698  1.5833984670  0.8927927618
H   4.1691730282  0.5971600710  2.1351072369
H   1.3865875503  3.3678849948  2.4668979994
H  -0.6142549503  0.7821204939  2.5563403898
H  -0.7478042330  2.4847286941  2.0567946467
H  -2.2426645971  0.8797439076  0.7362035429
H  -0.9520887344 -0.8861427289  0.5143139183
H   0.9136425532  0.8181898481 -1.2257376696
H   2.2929957304 -1.1972484808 -1.5757446309
H   1.2046617091 -2.1786967469 -0.5855477794
H   0.5525473766 -0.8036794020 -3.2584780564
H   0.7478348456 -2.5582196065 -3.0012325277
H  -1.2577960678  0.4146439212 -2.2285843676
H  -3.5036489611  0.5658324475 -1.4821935608
H  -3.4027898184 -0.9215791055 -0.5050422490
H  -4.1095089048 -0.7772161659 -3.3883539433
H  -4.0057574234 -2.2300679102 -2.3723925361
H  -2.1160827456  0.1700864698 -4.4616229150
H  -0.7017243562 -0.8770542781 -4.7817400023
H  -2.0448666909 -1.5358942874 -6.7142751328
H  -3.5722435144 -1.3232277986 -5.8175817218
H  -0.7259242019 -2.9271669739 -0.3656120059
H  -2.4045362120 -3.0292216172 -0.9545191237
H  -1.1087485753 -3.8707429202 -1.8391181746
H  -1.4900786778  3.6200927874  0.5914058231
