56
TSL_RSH point 12; constrained PBE/3-21G gas-phase geometry
C   2.8006620664 -1.1403625299  2.1297411208
C   2.5085248983  0.2201480792  1.4189191408
C   3.8146388530  0.7878065756  0.7878558665
C   4.8968430384  1.0951192228  1.8458611615
C   4.4101985963  2.0593052668  2.9363934647
O   5.1786443140  2.7857685431  3.6152205740
C   2.9525603372  2.0033986356  3.1727845569
C   2.0754752177  1.1911749857  2.5224427408
C   0.6402562809  1.0947978219  2.9948593757
C  -0.3638425143  1.1064075747  1.8241122488
C  -0.0527266260 -0.0624366551  0.8656799983
C   1.3938385872  0.0556588773  0.2942749538
C   1.7011779815 -1.1423136688 -0.6595591071
C   0.6004632118 -1.4357058816 -1.7252621140
C  -0.7870987032 -1.6167412227 -1.0603656361
C  -1.0648369991 -0.2785216884 -0.2941356361
C  -2.5751263318 -0.3314017237  0.0522791554
C  -3.2233693160 -1.1284142120 -1.1333954823
C  -2.0571331901 -1.7336761111 -1.9923467665
C  -1.9520084494 -1.0817760536 -3.3914944732
C  -2.9866810580 -1.8569305056 -4.2274871916
C  -3.0120047975 -3.2622207044 -3.6025471361
O  -3.4734725171 -4.3099383011 -4.0535643370
O  -2.4090100405 -3.1945004815 -2.3126774638
C  -0.8258532646 -2.8601981905 -0.1417296148
S  -0.1773716029  2.8518866514  1.0498749949
H   3.3808328947 -0.9662799475  3.0483340670
H   3.3792576288 -1.8068869103  1.4710696023
H   1.8644455039 -1.6489266270  2.4087234183
H   3.5550087400  1.7138638351  0.2448998413
H   4.2171838370  0.0642516301  0.0590748341
H   5.8096215060  1.5102662225  1.3891321438
H   5.1884658748  0.1556863196  2.3542494854
H   2.5963194885  2.6437337977  3.9847834873
H   0.5034138166  0.1344066645  3.5296770545
H   0.4190480042  1.9073406721  3.7061126064
H  -1.3924014438  1.0302445750  2.2101167958
H  -0.1236840783 -0.9603909836  1.5090126301
H   1.4029534936  0.9973301767 -0.2880771241
H   2.6564349500 -0.9589035225 -1.1805220980
H   1.8337578155 -2.0545280522 -0.0574684913
H   0.5546894822 -0.5813954363 -2.4245787272
H   0.8844250073 -2.3356403816 -2.2987008010
H  -0.9180149793  0.5353964435 -1.0326933778
H  -3.0075544046  0.6768427175  0.1512026076
H  -2.7295943075 -0.8660829267  1.0033611452
H  -3.8609110970 -0.4804574390 -1.7564868731
H  -3.8356788000 -1.9631268799 -0.7649265499
H  -2.1583418050 -0.0026687329 -3.3396930629
H  -0.9448505364 -1.2370679338 -3.8068315665
H  -2.7393685525 -1.9266588579 -5.2955266151
H  -3.9959987657 -1.4186533896 -4.1332619678
H  -0.0625145091 -2.8195675909  0.6474719936
H  -1.8155309890 -2.9653030968  0.3285370197
H  -0.6594217190 -3.7567222263 -0.7565902636
H  -1.1260201649  2.6678675594  0.0545642422
