56
MIN01 unconstrained final
C   2.0513614816 -0.5984424711  1.7744453029
C   1.6840007865 -0.2543659108  0.3086878064
C   2.8022738440  0.6071251250 -0.3314337913
C   2.8475890598  2.0488297391  0.1735992314
C   1.5095996464  2.7521226657 -0.0035231470
O   1.4124939761  3.9614529471 -0.1917290181
C   0.3216073180  1.8837000587  0.1316969408
C   0.3739030194  0.5364721010  0.3287837073
C  -0.8836601477 -0.2385790196  0.6180012022
C  -1.0425124365 -1.4422740557 -0.3197800752
C   0.2044397878 -2.3433097571 -0.2352242648
C   1.4950178468 -1.5519931837 -0.5614677827
C   2.7434819859 -2.4592233588 -0.5666899006
C   2.5817307840 -3.7060848976 -1.4520629798
C   1.3337926729 -4.5063632137 -1.0517080283
C   0.1084526623 -3.5687169540 -1.1437368370
C  -1.1095546127 -4.5021185429 -1.0093050898
C  -0.6264178485 -5.8535193030 -1.6010072213
C   0.8619882820 -5.6414313673 -2.0097340668
C   1.0138095942 -5.3833328162 -3.5286017695
C   1.1482066905 -6.7972942744 -4.0907843394
C   1.8002376646 -7.5689778659 -2.9468071634
O   2.3733218406 -8.6302598130 -2.9726438435
O   1.6312666371 -6.8533760396 -1.7892029550
C   1.5283516074 -5.1077492442  0.3563179247
S  -1.4802817876 -0.8979247200 -2.0351368475
H   2.0765199620  0.3154574434  2.3998378393
H   3.0499645263 -1.0735827141  1.8317315713
H   1.3215636407 -1.2927344631  2.2353675954
H   2.6355574068  0.6224656706 -1.4310383960
H   3.7850622932  0.1204810626 -0.1711042863
H   3.6272501544  2.6478615808 -0.3362502010
H   3.0908459212  2.0801895298  1.2596685637
H  -0.6475038912  2.4097490715  0.1310531855
H  -0.8224833234 -0.6327465910  1.6582493499
H  -1.7698218144  0.4228248224  0.5686274680
H  -1.9351366310 -2.0252609519 -0.0152424379
H   0.2482230283 -2.6929882950  0.8223447948
H   1.3549731876 -1.1915329417 -1.6073645047
H   3.6209996409 -1.8824548308 -0.9207523432
H   2.9841722786 -2.7711392313  0.4698960255
H   2.4874749456 -3.3700007071 -2.5057889782
H   3.4929622726 -4.3383851495 -1.3943256049
H   0.0971242179 -3.1648425008 -2.1815812068
H  -1.9940826746 -4.0994028795 -1.5407480581
H  -1.4007314121 -4.6193770563  0.0554895142
H  -1.2351364377 -6.1830610164 -2.4661782065
H  -0.6705851660 -6.6691078908 -0.8541917859
H   0.1643461080 -4.8081838989 -3.9423648319
H   1.9404474666 -4.8132181422 -3.7339886770
H   1.7530926078 -6.8880202254 -5.0118255842
H   0.1643933622 -7.2709421497 -4.2968187223
H   1.7632263842 -4.3307534074  1.1073983077
H   0.6314012830 -5.6485807131  0.7135237021
H   2.3621215109 -5.8348205116  0.3400883433
H  -0.6112678646  0.1532680051 -2.0792793171
