56
MIN02 optimized endpoint
C   2.091742327255 -0.854269245018  1.134498725089
C   1.726469214713  0.284726020600  0.148478105975
C   2.976312765475  0.710371730389 -0.662490923111
C   4.017623889776  1.474838499064  0.154005304788
C   3.419150182190  2.692212598028  0.845645903289
O   4.076263056316  3.697294516682  1.104162916217
C   2.004053609258  2.559041684239  1.242369811695
C   1.229629303305  1.472443231492  0.975591459168
C  -0.152731802076  1.360693225320  1.559860554797
C  -1.213044511313  0.991892381919  0.518286545716
C  -0.800965470462 -0.291915175262 -0.221482549051
C   0.606693656151 -0.163113711484 -0.860430247816
C   0.984005586407 -1.430108925965 -1.657209478190
C  -0.084130613527 -1.843030399632 -2.684193578052
C  -1.454220587346 -2.021392691373 -2.012841873498
C  -1.814982775183 -0.702523785054 -1.291766475497
C  -3.294508924902 -0.860454176531 -0.896742497246
C  -3.885862589683 -1.792707293736 -1.987873576319
C  -2.703735130263 -2.159285757395 -2.934910044887
C  -2.715321749154 -1.310473182535 -4.229680732733
C  -3.607146379772 -2.135573091964 -5.155620227357
C  -3.380498308777 -3.566698829475 -4.676424656254
O  -3.618981383582 -4.605623417697 -5.241175719284
O  -2.837527401537 -3.522028193882 -3.417784238481
C  -1.415765681804 -3.235505964634 -1.061020014086
S  -1.471009631390  2.358207931639 -0.715137493734
H   2.802662786126 -0.496219809096  1.904576627302
H   2.567931614897 -1.701828668607  0.604102758540
H   1.202377514864 -1.246980245905  1.665895812139
H   2.633812563907  1.360145169647 -1.497092077776
H   3.442414719010 -0.181911038577 -1.126647642686
H   4.871045365270  1.812432764492 -0.466127782796
H   4.450028280039  0.828195407270  0.950614291900
H   1.602914148720  3.398364145070  1.834256183824
H  -0.150691706618  0.548960769490  2.324695134827
H  -0.420973403664  2.292879432914  2.096102700972
H  -2.184545748266  0.819517765986  1.024080231262
H  -0.775047225757 -1.088125549826  0.557439164906
H   0.524765619355  0.671292230923 -1.593956476812
H   1.942400580339 -1.263144217791 -2.187822005228
H   1.167472704011 -2.271332840852 -0.958304096576
H  -0.146372233331 -1.047196501643 -3.455600976156
H   0.224417629752 -2.774059395398 -3.205078641491
H  -1.772400573156  0.091128859136 -2.073578071175
H  -3.803451096008  0.121795392803 -0.848249100840
H  -3.384326129536 -1.323171991402  0.108083637426
H  -4.715309037687 -1.319783283533 -2.550047232752
H  -4.289598159099 -2.728270235487 -1.555869889543
H  -3.075577466373 -0.279774094981 -4.051860801312
H  -1.696702112052 -1.244280726911 -4.658570052104
H  -3.382002857541 -2.049360400394 -6.234646523339
H  -4.686543622571 -1.905605363505 -5.026644439237
H  -0.611297474471 -3.144079132519 -0.307745757679
H  -2.366397410813 -3.374083017277 -0.511809632613
H  -1.238481720305 -4.159182751908 -1.643561026224
H  -1.687035905082  3.326572054153  0.217768477084
