56
candidate 001 CARTESIAN_THERMAL MIN01
C   2.0826598111 -0.5699559867  1.8362868585
C   1.5975998066 -0.2801676352  0.2991045094
C   2.8660448839  0.5962526392 -0.4003113658
C   2.8427270481  2.0595057929  0.2152850382
C   1.5445348197  2.7334851781 -0.0424004744
O   1.3838743735  3.9637723726 -0.1208879452
C   0.4220322497  1.9121522544  0.1289796999
C   0.3435522308  0.5302657537  0.2252087944
C  -0.8494692134 -0.2179932704  0.6174179591
C  -1.1109189430 -1.4017689399 -0.3872670724
C   0.2722478177 -2.3675406267 -0.1775331869
C   1.4986790598 -1.5614919461 -0.5614376199
C   2.7476776843 -2.4532499903 -0.6217355140
C   2.5178937256 -3.7357298224 -1.3936848010
C   1.4038347956 -4.5090642352 -1.0704877637
C   0.0777142108 -3.5454280042 -1.0622214082
C  -1.0750766276 -4.5081186543 -1.0477201828
C  -0.7158150627 -5.8417667851 -1.7004382164
C   0.9179328129 -5.6159433951 -1.9838053929
C   1.0137682678 -5.4144645238 -3.5693946164
C   1.1822088016 -6.8091179871 -4.0152651981
C   1.7504567714 -7.5607582309 -2.9318309265
O   2.4600326454 -8.6593325005 -3.0183992191
O   1.5832211490 -6.8563244251 -1.7318840494
C   1.5394370774 -5.0856562813  0.3060379552
S  -1.5356964786 -0.9017919731 -2.0064547942
H   2.1388683774  0.3267477882  2.3879901358
H   3.0262738244 -1.0434061680  1.7516464763
H   1.3136763394 -1.3169632805  2.2732014391
H   2.5915300786  0.6088622745 -1.4647671568
H   3.8947665441  0.1286794335 -0.0559160174
H   3.6245905825  2.6146446815 -0.3094570407
H   3.1532016088  2.0782364478  1.1571210200
H  -0.7385121179  2.4499849631  0.1240395006
H  -0.7757812643 -0.6302909310  1.5743293885
H  -1.7909495394  0.4530522084  0.6082076358
H  -1.9204005023 -1.9702646834 -0.0537118677
H   0.1658158134 -2.7228417679  0.7269095800
H   1.4756867815 -1.2070932173 -1.5585320799
H   3.5824254554 -1.8832147717 -0.9279637188
H   3.0111144457 -2.8075662626  0.5935390495
H   2.4155066116 -3.3849487838 -2.5110017998
H   3.5738712448 -4.3310943877 -1.4683186548
H   0.1076217082 -3.1834493439 -2.1581900560
H  -1.9846074316 -4.0806700337 -1.6189250257
H  -1.4956472040 -4.5752486611  0.1203914255
H  -1.1418828749 -6.2093062546 -2.4776828140
H  -0.7241254567 -6.6697749697 -0.9401457859
H   0.2379254290 -4.7945253533 -3.8876761697
H   1.8633547394 -4.8502386839 -3.7853876231
H   1.8483727899 -6.9016114142 -4.9251361921
H   0.1653048078 -7.2496487014 -4.3075441959
H   1.7647280815 -4.3483316452  1.0259720040
H   0.5453930220 -5.6359710855  0.7586212313
H   2.4487418669 -5.8068507518  0.3224290564
H  -0.6323283096  0.1273850981 -2.0051787836
