56
MIN01 minus_half_a; q=-0.025
C   2.051600595141 -0.598550331288  1.774252247041
C   1.683726940315 -0.254540620114  0.308618133263
C   2.801586610838  0.607163492837 -0.331932505247
C   2.846799627655  2.048906958369  0.173004499192
C   1.508627738941  2.751947533036 -0.003706792296
O   1.411203814200  3.961230821612 -0.192036369237
C   0.320864149334  1.883318172806  0.132118237568
C   0.373518926478  0.536114384338  0.329303208859
C  -0.883824348795 -0.239191004650  0.618722745451
C  -1.042387610795 -1.442182443453 -0.319971633565
C   0.204267963847 -2.343586957919 -0.235119176937
C   1.494801717578 -1.552258861792 -0.561457498394
C   2.743347491396 -2.459334451789 -0.566960335355
C   2.581461426682 -3.706147975301 -1.452392157038
C   1.333704387043 -4.506564185117 -1.051748816396
C   0.108200224909 -3.569069096187 -1.143553763549
C  -1.109618529509 -4.502692400348 -1.008746038392
C  -0.626411246043 -5.854063956436 -1.600487029220
C   0.861855702201 -5.641761185068 -2.009607931633
C   1.013251144361 -5.383707433404 -3.528524993678
C   1.147734397322 -6.797669708113 -4.090686247153
C   1.800190297546 -7.569196899878 -2.946849466002
O   2.373450586833 -8.630380942789 -2.972797561825
O   1.631390120488 -6.853577666285 -1.789225447211
C   1.528668103674 -5.107874243107  0.356259027362
S  -1.477466807546 -0.895481777358 -2.035278789312
H   2.076792447311  0.315341931597  2.399655754516
H   3.050296503782 -1.073532251308  1.831226153266
H   1.322049593710 -1.292972621722  2.235370786945
H   2.634472079264  0.622412243086 -1.431478629160
H   3.784531901265  0.120724847216 -0.171942327165
H   3.626190273882  2.648049779413 -0.337127032338
H   3.090394380865  2.080361516300  1.258996229633
H  -0.648356483266  2.409165794751  0.131855022080
H  -0.822371299649 -0.633944714580  1.658721115824
H  -1.770096184970  0.422099820972  0.569817237242
H  -1.935596382776 -2.025029948370 -0.016895502033
H   0.247916342625 -2.693185434438  0.822482284938
H   1.354539328271 -1.191870844212 -1.607334972112
H   3.620713684859 -1.882459956269 -0.921232350864
H   2.984359400552 -2.771303616222  0.469534642177
H   2.486884528240 -3.369997821781 -2.506069220755
H   3.492758409128 -4.338379906630 -1.394944139474
H   0.096620850513 -3.165252922092 -2.181422854512
H  -1.994394340735 -4.100217778450 -1.539958288503
H  -1.400473529580 -4.619925844178  0.056138990589
H  -1.235298537610 -6.183760530183 -2.465480476566
H  -0.670260232772 -6.669609997151 -0.853606586446
H   0.163593682198 -4.808713353295 -3.942104008789
H   1.939743372534 -4.813445702719 -3.734164159956
H   1.752394199290 -6.888331988099 -5.011882216427
H   0.163945136942 -7.271488216982 -4.296444599831
H   1.763527577461 -4.330813698880  1.107276005097
H   0.631913612267 -5.648899340104  0.713660789090
H   2.362592934058 -5.834765082825  0.339869183223
H  -0.609143959568  0.156375186376 -2.076237532324
