56
MIN01 plus_a; q=0.05
C   2.050883254519 -0.598226750725  1.774831414618
C   1.684548478870 -0.254016492172  0.308827152674
C   2.803648310325  0.607048389327 -0.330436363406
C   2.849167924090  2.048675300563  0.174788695816
C   1.511543461318  2.752472931027 -0.003155856408
O   1.415074299900  3.961897198076 -0.191114315825
C   0.323093655332  1.884463830487  0.130854347264
C   0.374671205245  0.537187534323  0.327744704182
C  -0.883331745510 -0.237355049499  0.616558115698
C  -1.042762087910 -1.442457280193 -0.319396958469
C   0.204783435707 -2.342755355461 -0.235434440526
C   1.495450105244 -1.551461827515 -0.561488351313
C   2.743750974907 -2.459001172822 -0.566149031089
C   2.582269498636 -3.705958742199 -1.451404625325
C   1.333969244615 -4.505961270865 -1.051626452108
C   0.108957537081 -3.568012669625 -1.144102983902
C  -1.109426779082 -4.500970828004 -1.010423192615
C  -0.626431053413 -5.852429996129 -1.602047605461
C   0.862253441597 -5.640771731764 -2.009986337135
C   1.014926493877 -5.382583581792 -3.528755321144
C   1.149151276856 -6.796543406974 -4.090980523895
C   1.800332398707 -7.568539797944 -2.946722558197
O   2.373064348133 -8.630017553423 -2.972336406850
O   1.631019670323 -6.852972786230 -1.789157970578
C   1.527718614853 -5.107499246387  0.356435719375
S  -1.485911747709 -0.902810605285 -2.034852963877
H   2.075974991378  0.315688467006  2.400202008868
H   3.049300571337 -1.073683639684  1.832742407368
H   1.320591734681 -1.292258145857  2.235361212311
H   2.637728061872  0.622572525629 -1.430157929679
H   3.786123077069  0.119993493368 -0.169428204570
H   3.629369915435  2.647485183574 -0.334496538325
H   3.091749001870  2.079845556800  1.261013231835
H  -0.645798707069  2.410915624998  0.129449512340
H  -0.822707370902 -0.630350343840  1.657305818052
H  -1.769273073260  0.424274825256  0.566247929517
H  -1.934217127447 -2.025722958961 -0.011936309633
H   0.248836399651 -2.692594016124  0.822069814525
H   1.355840906258 -1.190857136676 -1.607423569877
H   3.621571552983 -1.882444579862 -0.919792327873
H   2.983798034695 -2.770810461456  0.470618792147
H   2.488655780320 -3.370006477737 -2.505228493090
H   3.493369999544 -4.338395635239 -1.393088535751
H   0.098130952674 -3.164021658215 -2.181897911376
H  -1.993459342330 -4.097773081599 -1.542327597295
H  -1.401247177140 -4.618279480544  0.054190561421
H  -1.234812237881 -6.181661988834 -2.467573666369
H  -0.671235032456 -6.668103678098 -0.855362184809
H   0.165850959605 -4.807124990110 -3.942886478123
H   1.941855654732 -4.812763021163 -3.733637711088
H   1.754489424820 -6.887396700003 -5.011712319745
H   0.165289812716 -7.269850015136 -4.297566967239
H   1.762623997678 -4.330632824440  1.107642912906
H   0.630376624466 -5.647943459091  0.713249528120
H   2.361178664584 -5.834931369150  0.340526663454
H  -0.615515674663  0.147053642548 -2.085362886652
