56
candidate 006 CARTESIAN_THERMAL MIN01
C   2.0376733392 -0.6134924166  1.8314648277
C   1.6785326480 -0.2568944434  0.3130999530
C   2.7471799773  0.6190746711 -0.4007118331
C   2.8945927030  2.0359404413  0.1854226837
C   1.4787336474  2.7541071610 -0.0494291154
O   1.4345743118  3.9785538722 -0.1567188431
C   0.2510502944  1.8753591216  0.1156235419
C   0.4074370074  0.5440446969  0.2653681519
C  -0.9036239100 -0.2151892680  0.6341722256
C  -1.0317853676 -1.4604198052 -0.3521953164
C   0.1626255486 -2.3455106834 -0.1764272024
C   1.5592154856 -1.5390558816 -0.5754389244
C   2.7097416625 -2.4718817295 -0.6234440951
C   2.6046271725 -3.7050252875 -1.4233163451
C   1.2765171931 -4.4892636622 -1.0772955200
C   0.1560940491 -3.5779130857 -1.0929930247
C  -1.1146741675 -4.4957965065 -1.0124950586
C  -0.6154743169 -5.8327584797 -1.6495741796
C   0.8223935925 -5.6653997912 -1.9682028418
C   1.0857574014 -5.3947745819 -3.5693125224
C   1.1444853563 -6.7943130012 -4.0443172767
C   1.8438343939 -7.5894370158 -2.9461013642
O   2.3158352555 -8.6351371125 -3.0174827053
O   1.6727247493 -6.8405501982 -1.7571822654
C   1.5073430448 -5.1165356456  0.3341486928
S  -1.4651515072 -0.8965915778 -1.9955734475
H   1.9927067632  0.3538735568  2.4042785798
H   3.1226246865 -1.0941626576  1.7345313500
H   1.2583720670 -1.2901231525  2.2492131178
H   2.6721385863  0.6374540574 -1.4871435917
H   3.6992584636  0.1018636035 -0.0963336531
H   3.6940425623  2.6512794418 -0.3429223681
H   3.0711263093  2.1106128221  1.1779937402
H  -0.6503514161  2.3981499095  0.1455601153
H  -0.9106211130 -0.6174267344  1.6072909345
H  -1.6987991941  0.4572643454  0.6301923575
H  -1.9737141335 -2.0502162899 -0.0597822848
H   0.2804637290 -2.6922852318  0.7210595777
H   1.2695470060 -1.1749443876 -1.5838441118
H   3.6835408985 -1.9007820324 -0.9533641719
H   2.9616572280 -2.7630851624  0.5574756870
H   2.5228769708 -3.3481358413 -2.4928595444
H   3.4451771614 -4.3505997252 -1.4450546335
H   0.2064653241 -3.1578234713 -2.1363038550
H  -2.0406771365 -4.0686199040 -1.6186713691
H  -1.3815655621 -4.6481403047  0.1048197499
H  -1.3130429251 -6.1964963974 -2.4843354509
H  -0.6067012945 -6.6551498855 -0.9403139853
H   0.1719102149 -4.8404906168 -3.9065156768
H   1.9656726437 -4.8218105322 -3.7594899221
H   1.7112588936 -6.8778009242 -4.9107392928
H   0.2702439490 -7.2967523823 -4.2782208454
H   1.7182447547 -4.3178939870  1.0159801251
H   0.6655752347 -5.6146489062  0.7402665413
H   2.2560491967 -5.8590874538  0.3057044565
H  -0.5509249059  0.1436506946 -2.0287746884
