56
candidate 016 CARTESIAN_THERMAL MIN04
C   2.3738004702 -2.1435679223  3.4611104383
C   2.4570303682 -1.1790495803  2.1120787075
C   3.7833154288 -0.5727264005  1.7498417306
C   4.3185804059  0.3282954429  2.9823213311
C   3.2287210074  1.4303206825  3.2933478741
O   3.7377742157  2.4989743132  3.9705468315
C   1.8394598365  1.1325205900  3.0175074366
C   1.4953114768  0.0053423525  2.3513051998
C  -0.0544533954 -0.1290324782  2.0300339670
C  -0.3806243428 -1.6516689124  1.9509655179
C   0.4272784009 -2.6004666233  1.2266101582
C   1.8320649895 -1.9071865544  0.8747865465
C   2.7439892928 -2.9229244151  0.1438888028
C   2.3486510277 -3.4990793123 -1.0205155012
C   0.8631331730 -4.1283603953 -0.8561057723
C  -0.0541798668 -3.1458426392 -0.0966722191
C  -1.5550870262 -3.8696743377 -0.2780557566
C  -1.2539807047 -4.7998854546 -1.6140348139
C   0.0795944082 -4.6070813743 -2.0556653641
C   0.0946988111 -3.5851957963 -3.3185110132
C  -0.1779373474 -4.4815988154 -4.3921651100
C   0.6372650181 -5.8277437439 -4.0247026996
O   0.8373772608 -6.7404670082 -4.7717234496
O   0.6825456236 -5.7590566837 -2.6074090962
C   1.0021720505 -5.4170867652  0.0423292074
S  -2.2193425242 -1.6426275353  1.9215885963
H   2.8719727933 -1.5339685912  4.2048841447
H   3.1401301666 -3.0195543348  3.0001513272
H   1.3810620218 -2.5083782730  3.7037279762
H   3.8898961705 -0.0091440305  0.8144027933
H   4.4894445893 -1.4423552149  1.8265133021
H   5.3099968363  0.8656133194  2.6725930951
H   4.3844193390 -0.1755698208  3.7717428272
H   1.2550242065  1.9476621727  3.3016216670
H  -0.6797358551  0.5005939531  2.4649326539
H  -0.0196500707  0.2555700224  1.0051877633
H  -0.4735312778 -1.9937868218  3.0435941068
H   0.7377360216 -3.4913028060  1.6678444685
H   1.5835324008 -1.1080554481  0.1726415317
H   3.8155730476 -2.4019894748 -0.0575322294
H   2.9736687638 -3.7009452202  1.0789768294
H   2.2756051132 -2.6461418859 -1.7856768322
H   2.9711244895 -4.2599106508 -1.6425660960
H  -0.1355605822 -2.2501735372 -0.8615750395
H  -2.4153181585 -3.1354793067 -0.5010953705
H  -1.5532058263 -4.4777620305  0.7387487832
H  -2.1551167318 -4.6726621662 -2.2850895575
H  -1.3306262311 -5.8698236477 -1.3297979267
H  -0.8605931845 -2.8525902146 -3.0879512707
H   1.1321064422 -3.0491333142 -3.3952978153
H   0.3126138675 -4.1160837172 -5.2758126966
H  -1.1526245657 -4.7392150341 -4.7088708318
H   1.5882896749 -5.1583287243  0.8468710023
H   0.2857624874 -5.8063526256  0.4393466095
H   1.5826713546 -6.2108315278 -0.5620711240
H  -2.2816687206 -1.0113574388  0.7252626923
