56
phi060_psi-060 cycle 6
C   2.3269883524 -0.3520978766  1.7352902989
C   1.8090764715 -0.0931485761  0.2971210597
C   2.8200168407  0.7755272563 -0.4913330969
C   2.8974460745  2.2235082116 -0.0126747620
C   1.5316554374  2.9014536145 -0.0067674863
O   1.3970818436  4.1149812002 -0.1454378119
C   0.3799605280  2.0099747658  0.2446727359
C   0.4812979838  0.6657481751  0.4223995748
C  -0.7022666433 -0.1734312889  0.8122987954
C  -0.9301532111 -1.2827214982 -0.2281889953
C   0.2977123081 -2.2177700950 -0.1722812339
C   1.6078092479 -1.4453673571 -0.4869923941
C   2.8304573162 -2.3815176903 -0.4090590346
C   2.6848016824 -3.6156995579 -1.3143358989
C   1.3978273567 -4.3918338490 -0.9916722260
C   0.1969707590 -3.4223728593 -1.1056774262
C  -1.0383837050 -4.3318723343 -1.0194692048
C  -0.5869027329 -5.6369430803 -1.7238810771
C   0.9453207157 -5.4904045540 -2.0029925490
C   1.2391867564 -5.2283099085 -3.5001570117
C   1.2912834019 -6.6430233001 -4.0721088337
C   1.8263959688 -7.4626543012 -2.8978254789
O   2.3346017453 -8.5581913260 -2.9012520475
O   1.6341712647 -6.7449552712 -1.7435242666
C   1.5148254262 -5.0386292851  0.4043326258
S  -1.2566540712 -0.6241841872 -1.9254521134
H   2.3530853040  0.5858375444  2.3229050760
H   3.3520043732 -0.7702927274  1.7179813452
H   1.6821712467 -1.0673683718  2.2830587742
H   2.5090907026  0.7757723267 -1.5595227562
H   3.8239407407  0.3057538386 -0.4629848167
H   3.5808769452  2.8331419670 -0.6354790367
H   3.2940473893  2.2818541488  1.0256267343
H  -0.5948883845  2.5139634897  0.3436730763
H  -0.5158103668 -0.6578273504  1.7951222373
H  -1.6038049750  0.4609049816  0.9193579605
H  -1.8527435011 -1.8483866736  0.0092829078
H   0.3405267573 -2.5901027787  0.8773769213
H   1.5164321182 -1.1517605039 -1.5582403518
H   3.7464268054 -1.8282947855 -0.7000239026
H   2.9922720379 -2.7032328076  0.6399003582
H   2.6557148992 -3.2681168990 -2.3682462792
H   3.5757028056 -4.2712226005 -1.2172410603
H   0.2191645918 -3.0085212544 -2.1401822068
H  -1.9269974897 -3.8748330488 -1.4962124317
H  -1.3049384697 -4.5265686931  0.0400479152
H  -1.1384863475 -5.8070484811 -2.6693741528
H  -0.7528199872 -6.5326931582 -1.0953771496
H   0.4896946365 -4.5661760676 -3.9713091655
H   2.2327839813 -4.7522156117 -3.6145175493
H   1.9273723040 -6.7755707706 -4.9660877555
H   0.2834684475 -7.0373509753 -4.3240679114
H   1.7751007233 -4.2949155366  1.1807405188
H   0.5771222127 -5.5327404741  0.7221010665
H   2.3027977776 -5.8140943436  0.3927865168
H  -0.0766402691  0.0426162400 -2.0636315316
