56
M-D02 cycle 2
C   2.2636700701 -0.8546038889  1.1262204516
C   1.7836453144  0.2745523606  0.1781288650
C   2.9615702510  0.8018517377 -0.6763735712
C   3.9933253251  1.5959705700  0.1256548141
C   3.3659540469  2.7430501606  0.9124743745
O   3.9939674134  3.7598819300  1.1963480726
C   1.9792680555  2.5254359796  1.3711776784
C   1.2655350504  1.4109945224  1.0605463192
C  -0.0717763637  1.1225118524  1.6714192029
C  -1.1298014211  0.9637598296  0.5774152645
C  -0.7741257105 -0.3484073913 -0.1432159077
C   0.6428551458 -0.2355208482 -0.7833498019
C   1.0150718092 -1.5207922747 -1.5515697626
C  -0.0486247835 -1.9320406219 -2.5848346456
C  -1.4343446805 -2.0696865108 -1.9338331786
C  -1.7755453229 -0.7341960950 -1.2333139161
C  -3.2668368240 -0.8471163312 -0.8684749326
C  -3.8599957641 -1.7805832474 -1.9578851787
C  -2.6696536571 -2.1872239366 -2.8776817127
C  -2.6363470643 -1.3523540689 -4.1811704299
C  -3.5287205935 -2.1665598707 -5.1161341541
C  -3.3449566004 -3.5973043452 -4.6179063548
O  -3.5953679580 -4.6364640179 -5.1770713281
O  -2.8275893505 -3.5515481322 -3.3486677719
C  -1.4429762735 -3.2738527823 -0.9686035705
S  -0.9409098277  2.2249465733 -0.7728679654
H   2.9688236350 -0.4618566271  1.8844425748
H   2.7839574764 -1.6531102705  0.5622930622
H   1.4208217028 -1.3231691640  1.6722450478
H   2.5374247763  1.4647333044 -1.4615284024
H   3.4539439950 -0.0403822623 -1.2031938337
H   4.7904960564  2.0153435742 -0.5190717777
H   4.5079111675  0.9423380139  0.8656735771
H   1.5609977069  3.3059374509  2.0280104487
H  -0.0732555629  0.2309545804  2.3397836092
H  -0.3297607573  1.9972510308  2.3021098406
H  -2.1544088866  0.9246029142  0.9978214380
H  -0.7895847476 -1.1423247885  0.6382201719
H   0.5439002801  0.5736963812 -1.5423357522
H   1.9817842643 -1.3766878407 -2.0743978866
H   1.1786784160 -2.3512389370 -0.8352336979
H  -0.0845378236 -1.1465524682 -3.3684202578
H   0.2481972466 -2.8762850375 -3.0884428248
H  -1.6941055498  0.0512045537 -2.0196939254
H  -3.7506583689  0.1487507819 -0.8454564400
H  -3.3914392326 -1.2916476265  0.1408931437
H  -4.6679331152 -1.2966754440 -2.5416076522
H  -4.2929679724 -2.7005327148 -1.5207199667
H  -2.9761305289 -0.3119052003 -4.0208515723
H  -1.6082758665 -1.3137662458 -4.5904233614
H  -3.2808356245 -2.0969575452 -6.1913555554
H  -4.6048235231 -1.9105586352 -5.0105899342
H  -0.6456574796 -3.1970839221 -0.2062287045
H  -2.4039032900 -3.3788580296 -0.4299048219
H  -1.2848612629 -4.2086647317 -1.5387358133
H  -1.1074182292  3.3075228583  0.0372190919
