56
candidate 013 CARTESIAN_THERMAL MIN02
C   2.1055216499 -0.8621324555  1.0677888851
C   1.6932430415  0.2994918860  0.1722182474
C   3.0518295466  0.6847620503 -0.6851242089
C   3.9941941341  1.4519440435  0.2233193285
C   3.4553066680  2.6802279625  0.8781953734
O   4.0409829664  3.6493377742  1.1030264866
C   2.0638920683  2.5442315331  1.3010437528
C   1.2301159152  1.4808561003  0.9448056702
C  -0.1406238819  1.3462625703  1.6106348110
C  -1.2542799043  0.9977517329  0.5170849104
C  -0.7381158790 -0.2685865876 -0.2774590159
C   0.5891595828 -0.1765278194 -0.8334242865
C   1.0191977014 -1.4204617794 -1.6928499029
C  -0.1524706699 -1.8145433259 -2.6317766615
C  -1.4118493623 -2.0280314443 -2.0042719408
C  -1.8274365887 -0.6969639660 -1.3559780400
C  -3.2784841400 -0.8451931784 -0.8709850195
C  -3.9236552477 -1.8051843020 -2.0111425707
C  -2.6386988493 -2.1500606186 -2.8795040951
C  -2.7529836254 -1.2855702661 -4.2250118949
C  -3.5912504451 -2.1601435727 -5.1981032070
C  -3.4337692290 -3.5744146749 -4.6356385469
O  -3.5617773050 -4.5989363473 -5.2508326236
O  -2.8342503705 -3.5373176103 -3.3449008061
C  -1.4002052129 -3.2307986395 -1.0751066592
S  -1.5169501269  2.3773482022 -0.7663927381
H   2.8654630550 -0.5309940515  1.9392445384
H   2.5392204837 -1.7065142463  0.5637745360
H   1.2335606096 -1.2403344433  1.7272363457
H   2.5636727611  1.3382186613 -1.4740606690
H   3.4966990639 -0.1919393006 -1.1811993458
H   4.8682317578  1.8102913770 -0.3960311839
H   4.4789620951  0.7787377310  0.9046336249
H   1.5751574382  3.3786439197  1.9186287846
H  -0.0600269065  0.5598675318  2.3207538525
H  -0.4502592936  2.2723528713  2.0341603169
H  -2.1506631216  0.8249701568  1.0644259434
H  -0.8409469303 -1.0619048539  0.5261934312
H   0.5880599959  0.6604227653 -1.5100710555
H   1.9343851644 -1.2449140037 -2.1944363728
H   1.1886856557 -2.2473848202 -1.0669002841
H  -0.2130774723 -1.0407091315 -3.4385149065
H   0.2989644354 -2.7485316720 -3.2682853812
H  -1.7995965619  0.1210652251 -2.0033670564
H  -3.7595455835  0.1070652991 -0.8358754121
H  -3.4604450360 -1.3177608293  0.0527031188
H  -4.6703038090 -1.2960676468 -2.4921045441
H  -4.2998253839 -2.7610283429 -1.5669192915
H  -3.0777957640 -0.2843094044 -3.9596974757
H  -1.7632888374 -1.2207851495 -4.6722383243
H  -3.3185448036 -2.0661278722 -6.3051914704
H  -4.7345137677 -1.9114643538 -4.9838140160
H  -0.5612031644 -3.1176687569 -0.3540344254
H  -2.4165234075 -3.3878339103 -0.4406778595
H  -1.1591301009 -4.1457157878 -1.6454497254
H  -1.6922181408  3.3500378590  0.1781269317
