56
M-D02 cycle 24
C   2.4730252179 -0.5190355779  1.1852944720
C   1.6072390961  0.4860692685  0.3812991613
C   2.4846646389  1.2474714122 -0.6346178388
C   3.4801027733  2.1981718798  0.0402888665
C   2.8553731611  3.1443952918  1.0707222274
O   3.3622751034  4.2325440464  1.3331588987
C   1.6447905425  2.6608734684  1.7655894229
C   1.0575554653  1.4864457947  1.4361164476
C  -0.1683292931  0.8364963143  1.9424481198
C  -1.2783673044  1.1792963134  0.8880245148
C  -1.0944974858 -0.2140181380  0.1163377527
C   0.4211547712 -0.2784201475 -0.4067423175
C   0.7368758420 -1.7248335806 -0.8331479481
C  -0.2360429384 -2.2002679156 -1.9351673447
C  -1.7113502377 -2.0442256577 -1.5230880334
C  -1.9798951043 -0.5804826561 -1.0712476028
C  -3.5107943097 -0.4908426639 -0.9343273829
C  -4.0513056943 -1.5204750415 -1.9640876952
C  -2.7982299231 -2.1552273818 -2.6364156866
C  -2.4740021213 -1.4893221840 -3.9969511498
C  -3.2890486168 -2.3275132021 -4.9802135002
C  -3.3552822819 -3.6958878706 -4.3084782433
O  -3.6325897690 -4.7673720626 -4.7880582479
O  -3.0467400557 -3.5427808889 -2.9809344159
C  -2.0322804127 -3.0845855090 -0.4266135017
S  -0.9207645499  2.2033411577 -0.6151513326
H   3.2496529706  0.0082177991  1.7718259118
H   2.9832416209 -1.2323949401  0.5097164796
H   1.8687580472 -1.1127097082  1.8998002430
H   1.8031887048  1.8415738870 -1.2792158880
H   3.0178457009  0.5323525908 -1.2970301819
H   4.0161144625  2.8264819724 -0.6982305821
H   4.2704779702  1.6295875647  0.5802541281
H   1.2395351355  3.3089473811  2.5598401538
H  -0.0479483870 -0.2474092215  2.0841177261
H  -0.4707042890  1.2762555970  2.9194320239
H  -2.2740217712  1.3691843188  1.3248958639
H  -1.2666881588 -1.0038140665  0.8754710822
H   0.3823085290  0.2750851558 -1.3643160310
H   1.7684910527 -1.7789494532 -1.2381441874
H   0.7149146224 -2.4153275790  0.0364572017
H  -0.0331426111 -1.5883469454 -2.8390246757
H  -0.0242289004 -3.2553254518 -2.2093514457
H  -1.6884789478  0.0638724111 -1.9303762602
H  -3.8673905479  0.5397744703 -1.1260402055
H  -3.8320455093 -0.7534542921  0.0946616430
H  -4.7234912975 -1.0644155878 -2.7177255793
H  -4.6271694977 -2.3283745246 -1.4736000295
H  -2.7271175035 -0.4126138079 -4.0051419050
H  -1.3955343328 -1.5845932696 -4.2293056032
H  -2.8634389408 -2.4166574033 -5.9967424722
H  -4.3314361818 -1.9597078435 -5.0929898963
H  -1.2721564731 -3.0828155082  0.3765613044
H  -3.0171209291 -2.9193276483  0.0506281934
H  -2.0471544971 -4.0952728271 -0.8758293489
H  -0.4996955242  3.3597112563 -0.0208961733
