56
candidate 004 CARTESIAN_THERMAL MIN01
C   2.0241806840 -0.6009408195  1.7920553380
C   1.7140882819 -0.2487523608  0.2817283763
C   2.7830433622  0.5989169812 -0.3123187648
C   2.8584878453  2.0500079597  0.1624611063
C   1.4649506498  2.7604236597 -0.0409089044
O   1.4273101532  3.9542998621 -0.1798589382
C   0.3094776581  1.8842024889  0.1175914755
C   0.3797258898  0.5462667456  0.3643952802
C  -0.9067898726 -0.2539135583  0.6276480301
C  -1.0046666601 -1.4490113568 -0.3579057265
C   0.1840158551 -2.3390378387 -0.2270272125
C   1.5034221003 -1.5611833965 -0.5866838115
C   2.7068903416 -2.4574325690 -0.5455852299
C   2.6063203292 -3.6956833608 -1.4597378235
C   1.3297683838 -4.5129069835 -1.0853651925
C   0.1105200836 -3.5679435989 -1.1249833064
C  -1.1366273294 -4.4939405111 -1.0165699972
C  -0.5913585795 -5.8682117302 -1.5597232526
C   0.8493118122 -5.6449270791 -2.0180125467
C   1.0275071591 -5.3779718677 -3.5670212384
C   1.1045622384 -6.8071740797 -4.0796870203
C   1.8225852317 -7.5683633095 -2.9668595851
O   2.3662820776 -8.6196634933 -2.9444899251
O   1.6402671359 -6.8587163007 -1.7892784023
C   1.5097353874 -5.1033647284  0.3262886758
S  -1.4498220999 -0.8896226400 -2.0090238021
H   2.0584810244  0.2992534994  2.3600090249
H   3.0744243692 -1.0757181975  1.8558787917
H   1.2852085877 -1.2857320600  2.2258204124
H   2.6655562249  0.6097456578 -1.4864473536
H   3.7788695065  0.1230193960 -0.1635919742
H   3.6167274499  2.6624021606 -0.3694688274
H   3.0454977827  2.0737419723  1.2956006276
H  -0.6140109291  2.4077358018  0.1404296347
H  -0.8400551863 -0.6220145822  1.6081022870
H  -1.7516774897  0.3995023543  0.5883966782
H  -1.9874585138 -2.0367884004 -0.0338916306
H   0.2839568298 -2.6873939221  0.8628914019
H   1.3369612318 -1.2055054680 -1.6117276076
H   3.6277991468 -1.8792103579 -0.9732810957
H   2.9560303854 -2.7561312945  0.4870346517
H   2.5332299112 -3.3780013650 -2.5266994719
H   3.4663123051 -4.3314822492 -1.3515710713
H   0.1070674985 -3.1526669260 -2.1884429561
H  -2.0426583851 -4.1227634514 -1.5796415910
H  -1.3587558441 -4.6284316172  0.0815705443
H  -1.2411449500 -6.1805519467 -2.4801385225
H  -0.6592431100 -6.6853886097 -0.8030872193
H   0.1188058057 -4.8118291300 -3.9353355539
H   1.9793303770 -4.8008409818 -3.7736385348
H   1.7286705397 -6.8972563243 -4.9829161019
H   0.1851859705 -7.2706193524 -4.3277384804
H   1.7170066671 -4.3123748405  1.1361668018
H   0.6700027828 -5.6679759924  0.7069086837
H   2.3578969935 -5.8385509035  0.2870442774
H  -0.6153935593  0.1549014510 -2.0572223444
