56
TSL_RSH 2D constrained phi=180 psi=60
C   3.3366818225  0.2387304370  2.0216286395
C   2.0495685040  0.7549467299  1.3223705352
C   2.4167657249  1.7843664041  0.2249628777
C   3.1052825663  3.0425160057  0.8344319754
C   2.3551540060  3.7259948117  2.0073903780
O   2.5294324792  4.9379213074  2.3010657843
C   1.4325047748  2.8649143441  2.7637978192
C   1.2393524549  1.5649547932  2.4579396712
C   0.2638543619  0.4993963054  2.7466312407
C  -0.6820177200  0.8554951041  1.4858565955
C  -0.4639164037 -0.8097667661  1.1044223725
C   1.1426100646 -0.5932529567  0.7221801034
C   1.7900452052 -2.0095575231  0.8922949027
C   1.0531996281 -3.1128687149  0.0422591396
C  -0.4686553922 -3.2091276063  0.3497993223
C  -1.0829801779 -1.7774357886  0.0733516578
C  -2.6060677194 -2.0053307451  0.0812424836
C  -2.7828757602 -3.4336517701 -0.5384182365
C  -1.3700202051 -4.1193616477 -0.5791239670
C  -0.8657709545 -4.3828511137 -2.0179581808
C  -1.6524832597 -5.6414841695 -2.4309329299
C  -1.8119387877 -6.4255819870 -1.1156092849
O  -2.1499358696 -7.5957265682 -0.9399289645
O  -1.5182229086 -5.5427192505 -0.0302841476
C  -0.6950925640 -3.7505999500  1.7830167467
S  -0.7553154460  1.0151795864 -0.5858583566
H   3.8345012376  1.0662528154  2.5473041896
H   4.0407937907 -0.1821786910  1.2841816450
H   3.1086690457 -0.5411238771  2.7653728633
H   1.5020076935  2.1046432033 -0.2957734738
H   3.0943383365  1.3219403756 -0.5168485572
H   3.2554438089  3.8132618266  0.0608848446
H   4.1134486541  2.7745131669  1.2041097960
H   0.8721738622  3.3524023691  3.5652847485
H   0.7277373561 -0.4758851809  2.8628015048
H  -0.4080097572  0.7226677443  3.6034548902
H  -1.5670740128  1.3806493887  1.8587173640
H  -0.5515532353 -1.3555434057  2.0553277341
H   1.1485071700 -0.4239628712 -0.3714221143
H   2.8442275226 -1.9824894281  0.5686031805
H   1.7812453820 -2.3165209294  1.9514001991
H   1.1934091386 -2.8639975170 -1.0246628166
H   1.5395168886 -4.0866502981  0.2313058443
H  -0.7752693211 -1.4988753414 -0.9463082940
H  -3.1256672498 -1.2352230679 -0.5096729235
H  -2.9939687042 -1.9719467046  1.1118558188
H  -3.2046361332 -3.3717313201 -1.5543561571
H  -3.4455289259 -4.0603152937  0.0759210455
H  -1.0365137777 -3.5214097607 -2.6798021449
H   0.2100453171 -4.6147513774 -1.9899634853
H  -1.1619478746 -6.2588867780 -3.1952333167
H  -2.6614770588 -5.3766872650 -2.7947814145
H  -0.0829054163 -3.2323413464  2.5350248660
H  -1.7560217156 -3.6727633165  2.0688399011
H  -0.4322604325 -4.8184784379  1.7830492892
H  -2.0878711240  1.3897908616 -0.4659500803
