56
TSL_RSH point 0; constrained PBE/3-21G gas-phase geometry
C   2.6381616803 -1.2998797774  2.3237011265
C   2.5467479485 -0.1057096909  1.3318515927
C   3.9716196591  0.2556010306  0.8103787631
C   4.9303262366  0.7281181948  1.9310200568
C   4.3400377949  1.7876476048  2.8821897173
O   5.0580008624  2.4924727712  3.6346671270
C   2.8720012905  1.9216139053  2.8163027652
C   2.0450848177  1.1215714829  2.0917092249
C   0.5742799664  1.4548403873  1.9401501035
C  -0.3190355810  0.2016715134  1.8022825189
C   0.0789658262 -0.7588885065  0.6140038829
C   1.5514516647 -0.4106653913  0.1403934923
C   2.0789799757 -1.5074533759 -0.8287634691
C   1.1339995327 -1.7624791945 -2.0369450350
C  -0.3010620191 -2.0656710487 -1.5690657626
C  -0.8093149235 -0.8735965228 -0.6703481374
C  -2.3484845654 -1.1438639428 -0.5646920447
C  -2.7270740937 -1.9892782544 -1.8360307311
C  -1.4209670760 -2.1321405944 -2.6701372769
C  -1.3482074453 -1.0830379153 -3.8123524339
C  -2.0270057702 -1.7876385911 -4.9997084875
C  -1.7920197760 -3.2867576926 -4.7622700694
O  -1.9193642700 -4.2248609304 -5.5463985229
O  -1.3994021188 -3.4706782765 -3.3970344643
C  -0.3424876496 -3.4439154593 -0.8525446498
S  -2.1647001086  0.7805459444  1.8535372417
H   3.2323305420 -1.0122422182  3.2035561131
H   3.1207328048 -2.1627284403  1.8363930855
H   1.6403189033 -1.6060107457  2.6734405218
H   3.8655597274  1.0639339014  0.0640725287
H   4.4175454048 -0.6170527400  0.3068788002
H   5.8470282164  1.1567763675  1.4928964891
H   5.2529966588 -0.1296738469  2.5492680445
H   2.4625608188  2.7627225721  3.3830431614
H   0.2421402717  2.0598951230  2.7996155976
H   0.4572028710  2.0726780229  1.0284716925
H  -0.2160964517 -0.3664317449  2.7378862373
H   0.0978271723 -1.7734529446  1.0489300609
H   1.4800728283  0.5295219637 -0.4431946521
H   3.0617012037 -1.2000048315 -1.2224127690
H   2.2313048722 -2.4439311232 -0.2664762672
H   1.1375629946 -0.8524540374 -2.6625027230
H   1.5173211825 -2.5981646112 -2.6479842622
H  -0.6700249322  0.0563524623 -1.2560876591
H  -2.9052916243 -0.2006805282 -0.5288357752
H  -2.5869179719 -1.6972839710  0.3570549685
H  -3.5232751427 -1.5014481423 -2.4196832380
H  -3.0707173884 -2.9965821784 -1.5613879529
H  -1.8713774973 -0.1625316067 -3.5167929860
H  -0.3050135184 -0.8386248762 -4.0583452699
H  -1.6278749523 -1.4998774700 -5.9818514738
H  -3.1155966316 -1.6035364215 -5.0033476608
H   0.5183272849 -3.5906851548 -0.1862412320
H  -1.2633698391 -3.5584337235 -0.2604981245
H  -0.3326624100 -4.2194836220 -1.6314629948
H  -1.8782381176  2.1274023865  1.9980026990
