56
TSL_RSH 2D constrained phi=60 psi=60
C   2.8192443930 -1.5325551027  2.8671604410
C   2.3247204726 -0.5974095627  1.7329408767
C   3.5277328470  0.2710009879  1.2439157553
C   4.1410244141  1.0884433420  2.4155343874
C   3.1223047920  1.7943096776  3.3578019331
O   3.4934842344  2.5928389930  4.2526069413
C   1.6998439706  1.5475536280  3.0199455219
C   1.2966607633  0.5142641454  2.2495893294
C   0.0419436236  0.2483172535  1.4858531955
C  -0.3226883875 -1.1960957433  1.9792706359
C   0.2217200897 -2.1412973432  0.8180755593
C   1.6740719146 -1.4684002141  0.5145493751
C   2.5527218552 -2.6001632441 -0.0912770779
C   1.8842817523 -3.2226101286 -1.3735349812
C   0.4295202228 -3.7183176178 -1.1194508905
C  -0.3999221224 -2.5035094060 -0.5401338516
C  -1.8676080395 -2.9632986160 -0.6114464241
C  -1.9302035562 -3.8449563867 -1.9037155105
C  -0.4548006666 -4.1476080205 -2.3529888960
C  -0.1126622496 -3.5264943907 -3.7277117743
C  -0.7521869247 -4.5190290034 -4.7176795209
C  -0.5819554621 -5.8849398951 -4.0245090111
O  -0.6429850910 -7.0203233634 -4.4935609122
O  -0.3375627649 -5.6504501893 -2.6365959411
C   0.4428709073 -4.9419140225 -0.1714209234
S  -0.5905907725 -1.1674200629  3.9700135785
H   3.1271342941 -0.9368936656  3.7386850496
H   3.6791720132 -2.1252324762  2.5120159566
H   2.0375622859 -2.2313995866  3.2102502606
H   3.1585795442  0.9658213725  0.4676634850
H   4.3094614135 -0.3641093270  0.7913460154
H   4.7996888222  1.8804825922  2.0179054171
H   4.7821152231  0.4430937852  3.0413179376
H   0.9837642613  2.2917235859  3.3778540781
H  -0.7613109194  0.9716666723  1.7245766188
H   0.2024084814  0.3014377768  0.4018487783
H   0.6684818748 -1.3996356883  2.4260836096
H   0.4261988915 -3.1008396051  1.3213664469
H   1.5219456869 -0.7473726776 -0.3120797406
H   3.5351057884 -2.1894462841 -0.3862617798
H   2.7327267448 -3.3880444653  0.6574330269
H   1.8725437206 -2.4430871100 -2.1569804502
H   2.5119753010 -4.0563809946 -1.7348237081
H  -0.2691678066 -1.6586946966 -1.2462404842
H  -2.5523966677 -2.1034387393 -0.6697940359
H  -2.1302323372 -3.5483717660  0.2826645915
H  -2.4682459940 -3.3235621001 -2.7115773806
H  -2.4303474988 -4.8058533984 -1.7171268165
H  -0.4935915346 -2.4986884403 -3.8184900200
H   0.9788185519 -3.5245912990 -3.8761390930
H  -0.2824590888 -4.5346303135 -5.7110137625
H  -1.8321723747 -4.3260912938 -4.8423148170
H   1.1097039891 -4.7949798392  0.6897970020
H  -0.5698224374 -5.1700822341  0.1956542680
H   0.7929396758 -5.8116124941 -0.7451281902
H  -1.6389644742 -0.2568356754  4.0770333291
