56
phi060_psi+060 cycle 4
C   2.7386352550 -1.4670384802  2.9291187787
C   2.3230151423 -0.6328180686  1.6935375034
C   3.5719998502  0.1029987096  1.1568974644
C   4.1665665552  1.0343954505  2.2184933102
C   3.1505488130  1.8801522411  3.0029570748
O   3.5933601483  2.7442986755  3.7421477656
C   1.7107267746  1.6772026472  2.7103282468
C   1.3110403718  0.5701352042  2.0437242240
C   0.0677313956  0.2558704579  1.3116459358
C  -0.3483087165 -1.1082546375  1.8830463627
C   0.2109989588 -2.1902762197  0.9335355314
C   1.6796981463 -1.5979931462  0.5804620893
C   2.5401187948 -2.7432250022  0.0339032248
C   1.8705707414 -3.3295390389 -1.2293741653
C   0.4141182620 -3.7918074677 -1.0039902328
C  -0.4162531625 -2.6280283671 -0.3788417449
C  -1.8616201890 -3.1166882523 -0.4361151168
C  -1.9240837240 -3.8905879913 -1.7736639259
C  -0.4518914135 -4.0757497364 -2.2742916280
C  -0.1423620479 -3.2439288946 -3.5402287598
C  -0.6739154868 -4.1453110541 -4.6500276849
C  -0.4276855065 -5.5399336789 -4.0831358598
O  -0.3814818112 -6.5929187849 -4.6622486911
O  -0.2557316726 -5.4263393875 -2.7408236019
C   0.4355780137 -5.0578602490 -0.1221026061
S  -0.8013973810 -1.6949713186  3.5662182173
H   3.0309220605 -0.8337657215  3.7894343646
H   3.6018881421 -2.1194921771  2.6783131545
H   1.9340672976 -2.1342173095  3.3058676964
H   3.2749706765  0.6939416416  0.2615189243
H   4.3415755954 -0.6236136972  0.8136059688
H   4.8838898537  1.7558880401  1.7711604681
H   4.7646412752  0.4732891314  2.9697424600
H   1.0156191777  2.4966336738  2.9652059698
H  -0.7069770235  1.0456791054  1.4354547886
H   0.2420479672  0.1827997068  0.2224114251
H   0.6339664063 -1.2119242225  2.3883318618
H   0.3608358397 -3.1082587959  1.5418286397
H   1.5457815890 -0.9374795175 -0.3063227939
H   3.5485351420 -2.3752229756 -0.2556623879
H   2.7113816019 -3.5243986256  0.8065097882
H   1.8911072311 -2.5291947796 -2.0000202951
H   2.4770630041 -4.1704937792 -1.6336373320
H  -0.3178461742 -1.7691362946 -1.0876262344
H  -2.5852314198 -2.2771306770 -0.3971671184
H  -2.0890392316 -3.7653627361  0.4365216369
H  -2.5182384475 -3.3300445282 -2.5256653476
H  -2.4027340726 -4.8853211921 -1.6747200580
H  -0.5773000721 -2.2241783468 -3.5064793098
H   0.9544740696 -3.1370511957 -3.6610186623
H  -0.1892061303 -4.0328638798 -5.6391411511
H  -1.7695894956 -4.0343102724 -4.8107754997
H   1.0900645873 -4.9383590989  0.7626189543
H  -0.5699980099 -5.3473116278  0.2469861676
H   0.8214638751 -5.9132561445 -0.7088499576
H  -1.9017775692 -0.9525539695  3.8886869778
