56
candidate 008 CARTESIAN_THERMAL MIN02
C   2.0185360278 -0.8518031308  1.0499836715
C   1.7922725790  0.3173974785  0.1914491760
C   2.9672002717  0.7002817833 -0.6867806969
C   4.0187285585  1.4767209953  0.2522128649
C   3.3487853365  2.7035362137  0.8590483442
O   4.1522339091  3.6665140911  1.0675312224
C   1.9691675585  2.5522697166  1.2985017069
C   1.2669670587  1.4904401876  0.9487911200
C  -0.2405729035  1.3342601959  1.6496598499
C  -1.1580135468  0.9887576648  0.5396290050
C  -0.8135241883 -0.2657910484 -0.2804493299
C   0.6261365306 -0.1821319135 -0.8098597676
C   0.9370453606 -1.4142176620 -1.7315552520
C   0.0082762624 -1.8054566373 -2.6378682641
C  -1.4965515009 -2.0408325578 -2.0249883564
C  -1.7936731948 -0.7097473581 -1.3610223568
C  -3.3769412765 -0.8642059569 -0.8409190822
C  -3.8221238212 -1.8329717818 -2.0016658902
C  -2.7159025103 -2.1598346341 -2.8448740338
C  -2.7297765195 -1.2840611310 -4.2050684441
C  -3.6905273261 -2.1706226789 -5.2342135547
C  -3.2978650680 -3.5796951545 -4.6480608464
O  -3.6346911525 -4.5976454629 -5.2855231440
O  -2.7834149134 -3.5481917360 -3.3466357087
C  -1.4803721427 -3.2364895456 -1.0717682767
S  -1.4372300833  2.3754101311 -0.7566628612
H   2.7759764222 -0.5286518671  1.9668458070
H   2.6108605371 -1.6826967896  0.5394466692
H   1.1277762407 -1.2259522301  1.7874186404
H   2.7526093605  1.3584607191 -1.5143428383
H   3.3746535494 -0.1526083923 -1.2821536042
H   4.9078477324  1.8730388424 -0.4168117315
H   4.3358069739  0.8033150661  0.8757070468
H   1.7007635183  3.3795122164  1.9996965776
H  -0.1469406916  0.5516863923  2.3460114671
H  -0.4251119908  2.2406930082  2.0310635330
H  -2.2949829728  0.7965736195  1.1328910382
H  -0.6434126657 -1.0581558216  0.4701080321
H   0.4527357803  0.6473723578 -1.4869502873
H   1.9947698044 -1.2246236489 -2.2386048399
H   1.0541130857 -2.2314517306 -1.1242406604
H  -0.0843011064 -1.0416952569 -3.4054587800
H   0.2020644885 -2.7339238497 -3.2948455715
H  -1.7640867501  0.1188699116 -1.9227024304
H  -3.8958986115  0.0511105647 -0.7868364800
H  -3.2224197994 -1.3632950116 -0.0133206801
H  -4.7913343730 -1.3212838797 -2.4774962518
H  -4.2212893880 -2.8181513940 -1.6097055814
H  -3.2415329218 -0.2953995455 -3.9172486504
H  -1.6294229902 -1.1988874494 -4.6551030469
H  -3.4306138773 -2.0721858762 -6.3283900614
H  -4.6963157918 -1.9274490802 -4.9253895645
H  -0.6614018208 -3.1139464254 -0.3728935519
H  -2.1910401168 -3.4236861502 -0.3782580424
H  -1.2335197301 -4.1471178667 -1.6969971383
H  -1.6564239498  3.3424345067  0.1449000204
