56
candidate 009 CARTESIAN_THERMAL MIN02
C   2.1112629314 -0.8432092885  1.1804520338
C   1.6388020083  0.2566114937  0.1106523255
C   3.0628433031  0.6922826300 -0.5619392505
C   4.0266810312  1.4679335087  0.1805569395
C   3.4606836220  2.6488228525  0.7528514697
O   4.0483127554  3.6664306256  1.1558037372
C   2.1233110464  2.5843643646  1.1903724566
C   1.2124396633  1.4382515283  1.0497682515
C  -0.0916434859  1.3676091900  1.5470323274
C  -1.3059637304  1.0267282263  0.4236324952
C  -0.7355260331 -0.3044510279 -0.1762852827
C   0.5916184583 -0.1616942205 -0.8920327714
C   1.0050894205 -1.4053597471 -1.5571274185
C  -0.1488824218 -1.8569840900 -2.7119263889
C  -1.3523203750 -2.0058937871 -2.1168403606
C  -1.8541296250 -0.6581337895 -1.2696943941
C  -3.2514236281 -0.8722067818 -0.9531902729
C  -3.9697016146 -1.7860884047 -1.9051769478
C  -2.6237773868 -2.1369472885 -2.9304004602
C  -2.7178930812 -1.3388197914 -4.3110962591
C  -3.6057457602 -2.1455131788 -5.0979523696
C  -3.4626239016 -3.5487524534 -4.7301615424
O  -3.5354803985 -4.6326335291 -5.1550298626
O  -2.8790793626 -3.5114049828 -3.4186575255
C  -1.3709175074 -3.1871945248 -1.1472982011
S  -1.5450754684  2.3456200873 -0.6984274054
H   2.8924874988 -0.5206157078  1.8540105910
H   2.5280326301 -1.6886330376  0.7670308874
H   1.2211064793 -1.2819305972  1.6839581266
H   2.5791954173  1.3366649993 -1.6698142939
H   3.6265376070 -0.1781356523 -1.0790908066
H   4.8326253045  1.7313149167 -0.5421345350
H   4.5249103181  0.7919670891  1.0845525249
H   1.5104782602  3.4507143672  1.8205382130
H  -0.0243390949  0.5235430764  2.1808311813
H  -0.4031107760  2.3084803667  2.1500067185
H  -2.1463762588  0.8871379252  0.9528419591
H  -0.8867813746 -1.1047844422  0.7197676656
H   0.7044995967  0.6701798265 -1.6309833753
H   1.9015815616 -1.2369230192 -2.3499326457
H   1.2548210900 -2.3032408773 -0.9047688780
H  -0.3186552535 -1.0379670040 -3.5312420531
H   0.3065208844 -2.7274282999 -3.0634660708
H  -1.8015077782  0.0551970713 -2.0749999132
H  -3.7680972594  0.1480092620 -0.9823114853
H  -3.4928355520 -1.2510384484  0.2009140280
H  -4.5560531502 -1.3300975695 -2.6531258830
H  -4.3713054502 -2.6929239179 -1.4336437899
H  -3.0108314562 -0.2366307837 -4.0810197545
H  -1.8355357378 -1.2794534585 -4.8048907941
H  -3.2584305144 -2.0523976988 -6.1614916983
H  -4.6957200411 -1.8512750235 -5.0828267023
H  -0.6104673873 -3.1682800927 -0.1410969506
H  -2.5000515908 -3.3501742079 -0.4687311183
H  -1.1122656229 -4.1126437292 -1.8038724980
H  -1.7104233606  3.3231232443  0.2110293833
