56
phi060_psi-060 cycle 2
C   2.4042864293 -0.3574439565  1.6752552996
C   1.8106527081 -0.0767546908  0.2682903032
C   2.7558425595  0.8333172008 -0.5535787782
C   2.8660933134  2.2516075826  0.0058216316
C   1.5012603231  2.9089712653  0.1661103980
O   1.3808513297  4.1319560284  0.1382709890
C   0.3558546714  2.0153996281  0.4168598202
C   0.4828879409  0.6624036973  0.4827140612
C  -0.6792219542 -0.2043062476  0.8818828261
C  -0.9218503175 -1.2949974304 -0.1693474237
C   0.3128616296 -2.2027286816 -0.2038864052
C   1.6030186941 -1.4089807088 -0.5416410520
C   2.8377922445 -2.3364522822 -0.4985379217
C   2.6782470299 -3.5855700257 -1.3872702407
C   1.3944179275 -4.3539387345 -1.0323250642
C   0.2063917928 -3.3710242177 -1.1841491458
C  -1.0516938357 -4.2525054613 -1.1527555095
C  -0.5987478994 -5.5654465707 -1.8431871635
C   0.9494606802 -5.4818278958 -2.0131274583
C   1.3944569064 -5.3437017271 -3.4800941168
C   1.3540043245 -6.7861487920 -3.9761166317
C   1.7509634213 -7.5707148779 -2.7369282875
O   2.1806273292 -8.6920248845 -2.6389664828
O   1.5429824428 -6.7789178048 -1.6182492505
C   1.5021152823 -4.9509997264  0.3909804479
S  -1.3039344242 -0.5711875931 -1.8496534394
H   2.4506239118  0.5730147309  2.2717975526
H   3.4287385950 -0.7690324439  1.5951842691
H   1.7855954596 -1.0845730167  2.2369943247
H   2.3530849439  0.8943386127 -1.5876792510
H   3.7614215443  0.3709828973 -0.6224979290
H   3.4941342260  2.9014869355 -0.6347434384
H   3.3445925741  2.2430207322  1.0097702241
H  -0.6159697658  2.5047430808  0.5990908775
H  -0.4556663152 -0.6986078337  1.8527861884
H  -1.5867304397  0.4161248190  1.0137050385
H  -1.8363170605 -1.8740621770  0.0646174665
H   0.4077438044 -2.6193216098  0.8234149674
H   1.4864395692 -1.0953485403 -1.6026487449
H   3.7326125585 -1.7766487247 -0.8389323199
H   3.0358206245 -2.6478289327  0.5459180326
H   2.6260384329 -3.2531098396 -2.4444859792
H   3.5738148671 -4.2337467042 -1.2818727573
H   0.2751174087 -2.9242996228 -2.2009566371
H  -1.8925245010 -3.7740206419 -1.6898788353
H  -1.3785892259 -4.4421783227 -0.1102689917
H  -1.0894669769 -5.6865178806 -2.8283240446
H  -0.8414359061 -6.4578035582 -1.2363919962
H   0.7442247335 -4.6498894468 -4.0462306305
H   2.4362321172 -4.9719563651 -3.5258927498
H   2.0377696456 -7.0157187419 -4.8142005804
H   0.3309976179 -7.1037327021 -4.2680629287
H   1.8253267687 -4.1980924301  1.1330237248
H   0.5362396469 -5.3711291076  0.7323739679
H   2.2343251768 -5.7776594673  0.3893197884
H  -0.1297892400  0.1030278012 -1.9783372608
