56
TSL_RSH; canonical Unit02 geometry; charge 0
C   2.6400000000 -1.3560000000  2.4320000000
C   2.7090000000 -0.0800000000  1.5570000000
C   4.1020000000 -0.0160000000  0.8730000000
C   5.2610000000  0.1490000000  1.8560000000
C   5.0040000000  1.2280000000  2.8780000000
O   5.9050000000  1.6940000000  3.5730000000
C   3.6220000000  1.7300000000  3.0580000000
C   2.5720000000  1.1500000000  2.4470000000
C   1.2120000000  1.8010000000  2.5340000000
C   0.0220000000  0.8320000000  2.4050000000
C   0.1190000000 -0.1460000000  1.1760000000
C   1.5460000000 -0.0400000000  0.4970000000
C   1.7460000000 -1.0390000000 -0.6680000000
C   0.6000000000 -0.9970000000 -1.6830000000
C  -0.7560000000 -1.2220000000 -1.0070000000
C  -0.9720000000 -0.1170000000  0.0700000000
C  -2.4500000000 -0.3310000000  0.4340000000
C  -3.1360000000 -0.8420000000 -0.8470000000
C  -2.0150000000 -1.0230000000 -1.8980000000
C  -1.9900000000  0.1280000000 -2.8980000000
C  -3.0520000000 -0.2800000000 -3.8960000000
C  -2.9610000000 -1.7740000000 -3.8420000000
O  -3.4300000000 -2.5440000000 -4.6630000000
O  -2.2900000000 -2.1640000000 -2.7170000000
C  -0.7750000000 -2.6740000000 -0.4300000000
S  -1.4730000000  1.8670000000  2.5890000000
H   3.4310000000 -1.3790000000  3.1890000000
H   2.7490000000 -2.2600000000  1.8230000000
H   1.7020000000 -1.4400000000  2.9870000000
H   4.1210000000  0.8270000000  0.1670000000
H   4.2910000000 -0.9220000000  0.2850000000
H   6.1650000000  0.4140000000  1.2970000000
H   5.4580000000 -0.7870000000  2.3890000000
H   3.5270000000  2.6150000000  3.6770000000
H   1.1390000000  2.3470000000  3.4860000000
H   1.1580000000  2.5530000000  1.7340000000
H   0.0280000000  0.2030000000  3.3050000000
H   0.0450000000 -1.1440000000  1.6240000000
H   1.5830000000  0.9510000000  0.0150000000
H   2.6630000000 -0.7920000000 -1.2160000000
H   1.8850000000 -2.0560000000 -0.2900000000
H   0.6360000000 -0.0160000000 -2.1690000000
H   0.7710000000 -1.7430000000 -2.4670000000
H  -0.8980000000  0.8680000000 -0.4150000000
H  -2.9470000000  0.5920000000  0.7360000000
H  -2.5630000000 -1.0570000000  1.2460000000
H  -3.9030000000 -0.1320000000 -1.1750000000
H  -3.6590000000 -1.7850000000 -0.6460000000
H  -2.1770000000  1.1120000000 -2.4590000000
H  -1.0380000000  0.1740000000 -3.4370000000
H  -2.8240000000  0.0920000000 -4.8970000000
H  -4.0530000000  0.0340000000 -3.5870000000
H  -0.0210000000 -2.8430000000  0.3410000000
H  -1.7370000000 -2.9400000000  0.0200000000
H  -0.5810000000 -3.4040000000 -1.2250000000
H  -2.2790000000  0.8960000000  3.0450000000
