56
candidate 003 CARTESIAN_THERMAL MIN01
C   2.0750918176 -0.5979591045  1.7519945277
C   1.6775907829 -0.2467888963  0.3189372865
C   2.8165301186  0.5970866851 -0.3399139786
C   2.8220434969  2.0444688832  0.1986347257
C   1.5249312502  2.7542209524  0.0021961877
O   1.4078078580  3.9536562431 -0.2047443372
C   0.3265391296  1.8819694133  0.1496192952
C   0.3581411289  0.5406235186  0.3262894488
C  -0.8589834135 -0.2443695314  0.6472839472
C  -1.0535276154 -1.4413732952 -0.3212725724
C   0.2135350367 -2.3367322639 -0.2566009706
C   1.4738548596 -1.5609009657 -0.5495204795
C   2.7627841831 -2.4623946719 -0.5746306564
C   2.5805746570 -3.7025993360 -1.4283281188
C   1.3349125381 -4.5128962307 -1.0482780985
C   0.0894721626 -3.5688742483 -1.1594441644
C  -1.0881034016 -4.4960534149 -0.9933336634
C  -0.6356763040 -5.8572154036 -1.6157842868
C   0.8731982697 -5.6391772871 -1.9915361127
C   0.9897847746 -5.3740715069 -3.5297264548
C   1.1646369907 -6.8030887058 -4.1123542402
C   1.7959241975 -7.5696649114 -2.9362241659
O   2.3789334331 -8.6250379299 -2.9821841653
O   1.6167254552 -6.8588157243 -1.7651573093
C   1.5544779992 -5.1085745568  0.3619867414
S  -1.4921046168 -0.8904162908 -2.0596766350
H   2.0868690476  0.3071874115  2.4122442560
H   3.0202338977 -1.0737934799  1.8177022059
H   1.3447281948 -1.2849064405  2.2631579907
H   2.6337120826  0.6106724797 -1.4267116704
H   3.7893746963  0.1150969789 -0.1923938464
H   3.6058465815  2.6505315998 -0.3129208932
H   3.1219263864  2.0685278578  1.2568938941
H  -0.6558333749  2.4080800961  0.1700643512
H  -0.8056023653 -0.6278339162  1.6555030987
H  -1.8020880179  0.4158766954  0.5410897253
H  -1.9149386805 -2.0237870567 -0.0025076894
H   0.2414698577 -2.6850533510  0.8095824304
H   1.3625666995 -1.2019062085 -1.5760810307
H   3.6016734603 -1.8862605554 -0.9149651340
H   3.0172841527 -2.7681025345  0.4492733234
H   2.4747306409 -3.3773160519 -2.4846090761
H   3.5061701726 -4.3391176094 -1.4127907351
H   0.0710936882 -3.1559852999 -2.1574361278
H  -1.9674978158 -4.1035669162 -1.5434241844
H  -1.4012460415 -4.6172551958  0.0270394337
H  -1.2352793315 -6.1709265064 -2.4534990907
H  -0.6978211703 -6.6786445407 -0.8672643510
H   0.1915340580 -4.8074183691 -3.9111470618
H   1.9277816536 -4.8053173401 -3.7277933258
H   1.7666497980 -6.8920487896 -5.0465458412
H   0.1312184881 -7.2672466212 -4.2898265595
H   1.7826385067 -4.3244051674  1.0918945035
H   0.6239773861 -5.6546442462  0.7390325989
H   2.3680022024 -5.8332268403  0.3404050130
H  -0.6294671591  0.1657469933 -2.0999643370
