56
MIN03 cycle 7
C   2.8221413877 -1.6297954152  3.0044823764
C   2.4642425272 -0.8810945180  1.6972207594
C   3.7425065343 -0.2067029421  1.1236648758
C   4.3353485458  0.8277730833  2.0842887283
C   3.3122952209  1.7903655291  2.7018017555
O   3.6570241248  2.7999735404  3.3109883566
C   1.8921057057  1.4479197940  2.4993261169
C   1.4654660321  0.2682887527  1.9713506331
C   0.0340270052 -0.0089908920  1.6209625759
C  -0.2622109731 -1.4718144531  1.9947852592
C   0.4663534906 -2.4856937893  1.0777661787
C   1.8401946635 -1.8638796159  0.6596134497
C   2.7562347200 -2.9703049110  0.1128491944
C   2.1312508533 -3.6079275811 -1.1398787067
C   0.7033339290 -4.1153093254 -0.8697350867
C  -0.1801285384 -2.9895609970 -0.2368608513
C  -1.6037574473 -3.5967835195 -0.2798696213
C  -1.6040514808 -4.5342111095 -1.5156507149
C  -0.1704017119 -4.4707388123 -2.1080273750
C  -0.0855603942 -3.5144892916 -3.3235929371
C  -0.4214960399 -4.4365519036 -4.4942683806
C   0.0707651853 -5.8006557539 -4.0188346030
O   0.3019416707 -6.7935583623 -4.6634254511
O   0.2191744314 -5.7575154164 -2.6563036378
C   0.7954091051 -5.3682971726  0.0301413402
S  -2.0481201510 -1.7225311211  2.2966634086
H   3.0514093855 -0.9293501737  3.8291267344
H   3.7079426762 -2.2772593314  2.8414274024
H   1.9961966095 -2.2850433469  3.3449309373
H   3.4722523564  0.2880980695  0.1653872648
H   4.5044510675 -0.9759138475  0.8807495010
H   5.1008579568  1.4544034013  1.5833539572
H   4.8669836855  0.3359539729  2.9271949173
H   1.1721882627  2.2399526352  2.7608662694
H  -0.6810161287  0.7291624437  2.0294323791
H  -0.0498646703  0.0806746192  0.5090260250
H   0.1855557847 -1.6110940583  3.0012585593
H   0.6274828059 -3.3958122720  1.6930195438
H   1.6123755106 -1.2245942998 -0.2246278088
H   3.7480783164 -2.5546904535 -0.1551364673
H   2.9431043819 -3.7370690565  0.8939821585
H   2.1197559462 -2.8339945460 -1.9359996710
H   2.7667734428 -4.4385215993 -1.5126784058
H  -0.1644676544 -2.1361062143 -0.9524409582
H  -2.3840255836 -2.8179587395 -0.3576224777
H  -1.8198967815 -4.1529385825  0.6523345887
H  -2.3598090438 -4.2435427581 -2.2721664799
H  -1.8233244690 -5.5824575111 -1.2363306770
H  -0.7660781126 -2.6483105795 -3.2216133638
H   0.9439125917 -3.1240093002 -3.4413657818
H   0.0479046835 -4.1713901967 -5.4595109797
H  -1.5150673443 -4.5188140421 -4.6728937091
H   1.4179116272 -5.1855997635  0.9252803424
H  -0.1920405982 -5.7229104500  0.3812664948
H   1.2585217913 -6.1931408050 -0.5429644837
H  -2.4967114366 -1.3891953701  1.0550198078
