56
candidate 020 CARTESIAN_THERMAL MIN04
C   2.4455009484 -2.1323885661  3.3473149211
C   2.4667924059 -1.1724802661  2.2077697615
C   3.7916464203 -0.5710819524  1.8681713004
C   4.3428928099  0.3269045613  2.8861668697
C   3.2274492058  1.4178026386  3.3690674741
O   3.6816002293  2.4771767967  3.8658194120
C   1.8708491507  1.1240487269  3.0803854830
C   1.4716502861 -0.0102610688  2.4389824113
C  -0.0112022030 -0.1539123391  1.9408180306
C  -0.3900890022 -1.6351917254  2.0655581360
C   0.4032321529 -2.5880523078  1.1524312764
C   1.8494337105 -1.8997524367  0.9614992108
C   2.7610711895 -2.9123129938  0.2225918960
C   2.3061423365 -3.4936833309 -1.1235579940
C   0.8911969317 -4.1342371321 -0.7911128654
C  -0.1000912148 -3.1416911826 -0.2067363003
C  -1.5112830954 -3.8757344989 -0.2203839203
C  -1.2688605310 -4.8102013216 -1.4914770108
C   0.0626658430 -4.5780827496 -2.1202745900
C   0.0843682449 -3.5608498138 -3.2154366543
C  -0.2043378641 -4.4621099179 -4.5008939772
C   0.5595226254 -5.8137306935 -3.9755723076
O   0.8651772282 -6.7319913719 -4.7003291521
O   0.6623847569 -5.7653819445 -2.7144045492
C   1.0609030235 -5.4172856020  0.0991355709
S  -2.2151324660 -1.6621968319  1.8213142330
H   2.8510626916 -1.5675916461  4.3500670214
H   3.1745641274 -3.0036262232  3.1651049326
H   1.4021521476 -2.5073516812  3.5685116902
H   3.8323787551  0.0013451386  0.9261151188
H   4.5258063232 -1.4422659378  1.6607833034
H   5.2526736627  0.8550389197  2.7616631628
H   4.4655146272 -0.2015264974  3.8872221404
H   1.2705027945  1.9296112554  3.1784167260
H  -0.6793001858  0.4723126850  2.6535490687
H   0.0014002503  0.2275556069  0.9221792667
H  -0.4824053251 -1.9775619902  3.2021543939
H   0.6691381240 -3.4754151034  1.7970271354
H   1.6137609847 -1.0906416811  0.0390152325
H   3.7766456791 -2.3873945988  0.0405896138
H   3.0292686917 -3.7005199739  0.9079856767
H   2.2565645559 -2.6447196933 -1.6978360067
H   2.9210159110 -4.2437376107 -1.4801010216
H  -0.1077195472 -2.2531105681 -0.9401282215
H  -2.3974954792 -3.1544411781 -0.3223558764
H  -1.5826433776 -4.4553667546  0.5880779075
H  -2.1147848945 -4.6472573880 -2.1851225140
H  -1.3933324323 -5.8554668667 -1.2121116876
H  -0.8278089169 -2.8447255532 -3.2278125537
H   1.1078558469 -3.0441689394 -3.2970666189
H   0.2643845252 -4.1124513844 -5.4453360947
H  -1.1659318381 -4.7287738070 -4.5643855798
H   1.5713540253 -5.1730589649  1.0000503356
H   0.2108392647 -5.8309042503  0.2867880880
H   1.6322308546 -6.1833958748 -0.4754586006
H  -2.3105276853 -1.0075336506  0.5894672552
