56
phi300_psi-060 cycle 2
C   2.8765399078 -0.9712296870  1.8376571798
C   2.3438493071  0.0733335542  0.8150228605
C   3.5079594411  0.7003363261  0.0078099797
C   4.5014548746  1.4626347615  0.8862280122
C   3.8123162924  2.4882872622  1.7767811740
O   4.4555705518  3.4291429271  2.2416352389
C   2.3869864230  2.2749811603  2.0751772511
C   1.6878638888  1.1919814133  1.6356636707
C   0.2696430936  0.9742752344  2.0946698863
C  -0.6361303608  0.5216987380  0.9519305442
C  -0.0883452292 -0.7771957659  0.3550033730
C   1.3470541171 -0.5858933504 -0.2014267724
C   1.8820904248 -1.9123995278 -0.7867272551
C   0.9263440693 -2.5696060722 -1.8040847000
C  -0.4768150945 -2.7569989752 -1.2052939602
C  -0.9730372253 -1.3625824643 -0.7468927219
C  -2.4742894338 -1.5377513879 -0.4691532200
C  -2.9201666253 -2.5933047065 -1.5154682925
C  -1.6225644718 -3.1511982420 -2.1840968999
C  -1.4673960577 -2.7207218788 -3.6526818170
C  -2.3879473589 -3.6971263620 -4.3826122432
C  -2.3089862888 -4.9491407846 -3.5217658552
O  -2.6649452234 -6.0721626923 -3.7768847856
O  -1.7445634088 -4.6241961743 -2.2964180115
C  -0.4402185934 -3.7936657710 -0.0573738366
S  -0.6741380206  1.8097679110 -0.4160690699
H   3.4395196446 -0.4728183905  2.6478915715
H   3.5485453320 -1.6996814942  1.3448825525
H   2.0447275895 -1.5326835763  2.3073298964
H   3.0615861664  1.4047062444 -0.7247568180
H   4.0396125080 -0.0885851528 -0.5621222658
H   5.2683695430  1.9857012847  0.2814180717
H   5.0545631799  0.7657667201  1.5528127405
H   1.9102017173  3.0380931076  2.7129650146
H   0.2586493780  0.1773773501  2.8745809112
H  -0.1201963482  1.8961315713  2.5698806064
H  -1.6789135451  0.3869962760  1.2972186888
H  -0.0531664665 -1.5041553078  1.1964537101
H   1.2592267157  0.1351552789 -1.0429294584
H   2.8534969937 -1.7329158265 -1.2901432733
H   2.0784018669 -2.6262202184  0.0367357802
H   0.8585144841 -1.9160315892 -2.6981200724
H   1.3540219927 -3.5409231713 -2.1299207319
H  -0.8784819969 -0.6865962538 -1.6264572128
H  -3.0208443087 -0.5824244981 -0.5825675709
H  -2.6413421271 -1.9073584039  0.5625710126
H  -3.5881439999 -2.1472888410 -2.2769274591
H  -3.4597467303 -3.4352364659 -1.0439611943
H  -1.7258346082 -1.6555616058 -3.8032101669
H  -0.4235902422 -2.8853604047 -3.9829147806
H  -2.0917691011 -3.9251160384 -5.4231609076
H  -3.4451603701 -3.3597079391 -4.3966314911
H   0.3668341147 -3.5795695151  0.6674443420
H  -1.3971125859 -3.8245454620  0.4975136500
H  -0.2752273270 -4.8002090002 -0.4805558130
H  -1.1673662373  2.7998895512  0.3801671202
