56
M-D01 cycle 2
C   2.2448508381 -0.4447194367  1.7395073432
C   1.7281945954 -0.2067216878  0.2976077294
C   2.7271237008  0.6701483554 -0.4958611404
C   2.7514218017  2.1311071274 -0.0436479413
C   1.3677519497  2.7745502220 -0.0817602998
O   1.2093922054  3.9752630060 -0.2829095094
C   0.2327831573  1.8728344908  0.2117558580
C   0.3944539092  0.5382507818  0.4131641445
C  -0.7137460546 -0.3628137805  0.8574330962
C  -0.9892946371 -1.3803989484 -0.2587717320
C   0.2078254373 -2.3503914282 -0.1736394903
C   1.5291146720 -1.5762216103 -0.4687599334
C   2.7535153494 -2.5112990980 -0.3943852677
C   2.6111382975 -3.7447692036 -1.3040152607
C   1.3144875362 -4.5138627334 -1.0023325150
C   0.1224446725 -3.5366733704 -1.1320071603
C  -1.1280104087 -4.4347181844 -1.0984152151
C  -0.6495909284 -5.7837804107 -1.7001889666
C   0.8633744465 -5.6015941357 -2.0233414382
C   1.1000407528 -5.2942352699 -3.5220474928
C   1.2250697516 -6.6907437674 -4.1285082781
C   1.7947518641 -7.5215911141 -2.9819265712
O   2.3375841545 -8.5983456739 -3.0176686608
O   1.5875077690 -6.8419180966 -1.8090085424
C   1.4101508620 -5.1662431490  0.3935758493
S  -0.9604617786 -0.6277739512 -1.9495043207
H   2.2669102708  0.5016288564  2.3144734728
H   3.2717843199 -0.8585932968  1.7291239089
H   1.6023620203 -1.1548781726  2.2968344413
H   2.4319209035  0.6394281097 -1.5681428930
H   3.7444995946  0.2326349177 -0.4406410829
H   3.4372768708  2.7476245156 -0.6569560366
H   3.1152503907  2.2123263377  1.0054224461
H  -0.7560831933  2.3494213568  0.3114624369
H  -0.5178964620 -0.8816735868  1.8210660881
H  -1.6098035955  0.2744755644  0.9912159635
H  -1.9585981135 -1.8991931449 -0.1192066671
H   0.2112745500 -2.7438963541  0.8690808988
H   1.4364994698 -1.2826036195 -1.5396907391
H   3.6679601665 -1.9561310948 -0.6861457700
H   2.9154470170 -2.8350790638  0.6536462278
H   2.5962435664 -3.3912343551 -2.3562100917
H   3.4971867327 -4.4058526941 -1.1985205061
H   0.1796175084 -3.0994356225 -2.1546531633
H  -1.9635825438 -3.9855407895 -1.6699094965
H  -1.4873598461 -4.5736610974 -0.0573684092
H  -1.2195657956 -6.0755023833 -2.6044179614
H  -0.7536235444 -6.6160182195 -0.9781339305
H   0.2887688361 -4.6809128045 -3.9569752691
H   2.0512729199 -4.7442913103 -3.6591732734
H   1.8750020007 -6.7662197916 -5.0197659117
H   0.2409359664 -7.1275246676 -4.4028435863
H   1.6430509661 -4.4244781414  1.1800298697
H   0.4731665289 -5.6748501114  0.6899229549
H   2.2103452386 -5.9302714283  0.3933556508
H   0.3236513125 -0.1796119738 -1.9039239508
