56
M-D01 cycle 22
C   2.8991425976 -0.6949304922  1.2482439396
C   1.9924350233 -0.6222657058 -0.0073252457
C   2.6375093295  0.3113185149 -1.0537152291
C   2.6362205858  1.7781640632 -0.6070417496
C   1.2835766093  2.3055422608 -0.1110741344
O   1.0171509622  3.5036336205 -0.1522205777
C   0.3517018792  1.3173190927  0.4675905193
C   0.6488238794  0.0001445048  0.4944631846
C  -0.0923538114 -1.1891948520  0.9381698560
C  -0.7886197994 -1.7601970808 -0.3592523024
C   0.3503717967 -2.8799816290 -0.5178012324
C   1.7724750275 -2.1121732514 -0.6337870096
C   2.8877729822 -3.1364778082 -0.3414212928
C   2.8233921486 -4.3218684581 -1.3321875567
C   1.4394156827 -4.9963708406 -1.3636237874
C   0.3361035967 -3.9304924213 -1.6192322349
C  -0.9429512524 -4.7482714500 -1.8791052754
C  -0.4299405416 -6.0901063233 -2.4707536891
C   1.1179414653 -5.9547295012 -2.5517959854
C   1.5831815136 -5.5026612644 -3.9584111727
C   1.7775122443 -6.8314227930 -4.6868052346
C   2.1394959819 -7.8003858805 -3.5653320334
O   2.6577712087 -8.8871705711 -3.6357648878
O   1.7612319188 -7.2420992333 -2.3707814027
C   1.2418603023 -5.7749075995 -0.0428108273
S  -0.6335488775 -0.9975691485 -2.0638926504
H   2.9842804236  0.2979987061  1.7290590940
H   3.9200428496 -1.0337319801  0.9855106703
H   2.5012041257 -1.3945120040  2.0093299617
H   2.0609812447  0.2424384098 -2.0007167784
H   3.6705736594 -0.0245861720 -1.2880992437
H   2.9731041706  2.4535609487 -1.4178421165
H   3.3535751537  1.9362873668  0.2293739553
H  -0.5975518187  1.7072569462  0.8679445235
H   0.5466966360 -1.9282071287  1.4376923936
H  -0.8984129261 -0.9078826404  1.6540332851
H  -1.8252065014 -2.1095660779 -0.2217575183
H   0.3500103149 -3.4499981180  0.4331794199
H   1.9123313189 -1.9506540412 -1.7255184675
H   3.8825604962 -2.6570778858 -0.4452275604
H   2.8310614180 -3.4938986969  0.7082948975
H   3.0680853091 -3.9222359910 -2.3390576960
H   3.6093156753 -5.0669821119 -1.0874068771
H   0.5951287015 -3.4286501777 -2.5758696116
H  -1.6211273510 -4.2021774572 -2.5627733315
H  -1.5077747889 -4.9197669934 -0.9395729252
H  -0.8684849882 -6.3262532274 -3.4605332085
H  -0.6648283493 -6.9447044626 -1.8079161709
H   0.8536980957 -4.8269095975 -4.4425236929
H   2.5504705336 -4.9668305410 -3.8949066802
H   2.5583669518 -6.8364266570 -5.4694919105
H   0.8406957451 -7.2000419199 -5.1569284771
H   1.5474828021 -5.1758046787  0.8354695548
H   0.1929560552 -6.0866033207  0.1231146300
H   1.8644925905 -6.6890979979 -0.0599396682
H   0.7026635727 -1.0956565438 -2.2006701674
