56
candidate 022 NORMAL_MODE MIN01
C   2.0491430564 -0.5739594235  1.7896528820
C   1.6965880405 -0.2424418666  0.3172805915
C   2.8155793986  0.6284860361 -0.3108617041
C   2.8366237606  2.0754107228  0.1871324513
C   1.4942006377  2.7673570271 -0.0098753621
O   1.3853847905  3.9796839666 -0.1737765009
C   0.3152461561  1.8836972768  0.0930529549
C   0.3807536318  0.5404572205  0.3139797233
C  -0.8729134147 -0.2365703172  0.6088333445
C  -1.0288814320 -1.4401296259 -0.3276923601
C   0.2223214439 -2.3366234490 -0.2386381297
C   1.5206430687 -1.5502056229 -0.5479697776
C   2.7546219770 -2.4796001540 -0.5207362103
C   2.5984226862 -3.7138420934 -1.4318546413
C   1.3430611859 -4.5170436202 -1.0568542464
C   0.1256814279 -3.5669567982 -1.1414976011
C  -1.0913954545 -4.4930578790 -0.9899926961
C  -0.6408638926 -5.8231515326 -1.6545866645
C   0.8664028014 -5.6415823793 -2.0273452165
C   1.0448770729 -5.4191906826 -3.5452681658
C   1.0002223832 -6.8709285968 -4.0573171995
C   1.7799643675 -7.5873568847 -2.9501777524
O   2.4497916025 -8.5957388542 -2.9963181341
O   1.6213670616 -6.8658359098 -1.7924190202
C   1.5232059555 -5.1507084148  0.3401885221
S  -1.4889239341 -0.8902516230 -2.0367023688
H   2.0588006085  0.3442017034  2.4095416417
H   3.0514287174 -1.0399290854  1.8608334706
H   1.3204624094 -1.2720265142  2.2466988832
H   2.6655856321  0.6366107921 -1.4130386222
H   3.8016949432  0.1534272253 -0.1334849681
H   3.6184293204  2.6792720269 -0.3139758260
H   3.0643773895  2.1168228262  1.2763985027
H  -0.6603654363  2.3976708603  0.0750048807
H  -0.8072316596 -0.6279408559  1.6497789114
H  -1.7611798399  0.4217515672  0.5595401535
H  -1.9175873850 -2.0273366674 -0.0198248197
H   0.2585306711 -2.6838021372  0.8204233464
H   1.4063553496 -1.1962228061 -1.5996647296
H   3.6570809641 -1.9144966647 -0.8331273868
H   2.9490712090 -2.8129515367  0.5203839690
H   2.5159446156 -3.3641248575 -2.4831516825
H   3.5070919604 -4.3494841478 -1.3723924496
H   0.1078986483 -3.1683265253 -2.1817328549
H  -1.9996465657 -4.0684367913 -1.4650632932
H  -1.3295543458 -4.6472347923  0.0852144902
H  -1.2467246222 -6.0660433168 -2.5544436057
H  -0.7374269331 -6.6885472304 -0.9652678074
H   0.2701209872 -4.7431222002 -3.9723942208
H   2.0522519829 -4.9803673795 -3.7604009060
H   1.4470210958 -7.0616044443 -5.0709564852
H  -0.0566096125 -7.2830876828 -4.0608105985
H   1.6593104511 -4.3818171232  1.1309633115
H   0.6563137126 -5.7819861489  0.6350404060
H   2.4163107104 -5.8098762279  0.3351330797
H  -0.5850986835  0.1311588975 -2.1066007672
