56
 energy: -77.945493538366 gnorm: 0.000713873043 xtb: 6.7.1 (edcfbbe)
C            2.64051046479512       -1.33016568692315        2.42466687588283
C            2.68203174760255       -0.08497926548723        1.52317030789832
C            4.05294214600824       -0.00555898044096        0.82708540383868
C            5.20466792392076        0.17276022222600        1.81233648459920
C            4.95757343892335        1.21976768521839        2.86956060092965
O            5.87409344647591        1.64788724182979        3.56619990188083
C            3.59478317791243        1.69531362044842        3.01050394070592
C            2.54640806896505        1.14367212990887        2.38055205612385
C            1.19407426078294        1.76309398163994        2.45360534327467
C            0.04686960238061        0.75612164099307        2.38280428107274
C            0.14267894546866       -0.22881518596062        1.18566644282567
C            1.52086462224358       -0.06513979731873        0.49249573512493
C            1.72159514975418       -1.07808361332272       -0.64006495444323
C            0.59433731676546       -0.99169258174722       -1.66744681585439
C           -0.75084442302243       -1.20341605584797       -0.98362496488515
C           -0.95035917641122       -0.13073296906389        0.11004102274137
C           -2.42004662230571       -0.34123790810965        0.50749106748148
C           -3.12444556232542       -0.79946324829673       -0.78229234202708
C           -2.01716215316387       -0.97573060038141       -1.84447847986927
C           -1.99387526338666        0.19150344649345       -2.84697231782818
C           -2.93208966543675       -0.29016410146263       -3.94817048270877
C           -2.83817780061999       -1.79398324208620       -3.82433799247729
O           -3.19353500593004       -2.61688976978274       -4.63864501274386
O           -2.30033850250058       -2.13371141274196       -2.66518215576484
C           -0.82329418772046       -2.64382629600515       -0.45385040785735
S           -1.46538948952064        1.82054907199280        2.49330576887903
H            3.44417832136254       -1.28845342577290        3.15386619671857
H            2.76022725508736       -2.22930473739568        1.82735497589472
H            1.70895892569529       -1.39341221691961        2.97623432554009
H            4.04358828428877        0.84087222225668        0.13666702833493
H            4.23769906619556       -0.91426518704816        0.25638689376161
H            6.12306294958713        0.43901681916453        1.28497424203527
H            5.41655921948763       -0.76222201125430        2.33731116783311
H            3.46615820427718        2.55535505248398        3.65338282621777
H            1.09606710553141        2.35452768014759        3.36586199177662
H            1.09682984333726        2.46301257167762        1.61630431580398
H            0.03583809906261        0.18691523878397        3.31280949955130
H            0.07692685217117       -1.23434913545167        1.60409788647092
H            1.53333617191605        0.92449597580569        0.02121121881474
H            2.65275304948945       -0.85264175866627       -1.15827629197568
H            1.79948438918984       -2.08881665877645       -0.24568665836259
H            0.63681955213183       -0.00165867501872       -2.12401316689954
H            0.74342366267741       -1.73695890259249       -2.45114904389067
H           -0.86429570594800        0.85186189579809       -0.36676372329565
H           -2.87699248669659        0.57348054404937        0.87137903142861
H           -2.49655945328619       -1.09605324396929        1.28844048596493
H           -3.86334595654153       -0.07118512573515       -1.11150357311511
H           -3.64185793723785       -1.74876711811657       -0.64669095291466
H           -2.31720550938139        1.12090698598694       -2.38696304627659
H           -0.99603154493344        0.32725364746506       -3.26015651863445
H           -2.65820445284716        0.03219370910007       -4.94964619539830
H           -3.97089004686348       -0.00651210108820       -3.77001813922282
H           -0.04672504165371       -2.84822363381534        0.27297029840798
H           -1.78239489989031       -2.85530516044776        0.00388835670647
H           -0.69891655045118       -3.33052303514279       -1.28805619752741
H           -2.19036382541092        1.00368145872255        3.24436345945090
