56
candidate 029 NORMAL_MODE MIN02
C   2.0964721602 -0.8407225885  1.1568212905
C   1.7273536755  0.2909023998  0.1642263938
C   2.9714041067  0.7104527395 -0.6586662407
C   4.0264582422  1.4664770941  0.1453190142
C   3.4420531017  2.6766945616  0.8611330754
O   4.1155901606  3.6671423681  1.1339508550
C   2.0241243826  2.5590773146  1.2575928803
C   1.2350491404  1.4831347257  0.9889534277
C  -0.1551113417  1.3875234116  1.5631159648
C  -1.2093517928  0.9997136127  0.5163578870
C  -0.8020011407 -0.2892152856 -0.2147405296
C   0.6084289149 -0.1611560911 -0.8439522948
C   0.9830390629 -1.4330250532 -1.6349520316
C  -0.0738483907 -1.8307556331 -2.6802201258
C  -1.4484053516 -2.0165560938 -2.0218860847
C  -1.8077344912 -0.7030314084 -1.2939695095
C  -3.2873579947 -0.8523206568 -0.9134557010
C  -3.8826989523 -1.7407089020 -2.0394755099
C  -2.6860488599 -2.1512086325 -2.9576348676
C  -2.7049075917 -1.3557412287 -4.2806944154
C  -3.7726120592 -2.1514659974 -5.0651458459
C  -3.3926505613 -3.5829355094 -4.6619957180
O  -3.5244475546 -4.6252494609 -5.2645204422
O  -2.8114242951 -3.5278507617 -3.4189522282
C  -1.4298310111 -3.2412082301 -1.0821151775
S  -1.4622345564  2.3588280053 -0.7235998520
H   2.8183350865 -0.4767605670  1.9141692805
H   2.5609436612 -1.6983533363  0.6315691159
H   1.2102339119 -1.2195943046  1.7043032847
H   2.6232368743  1.3641082643 -1.4880281416
H   3.4264979034 -0.1835855124 -1.1302301080
H   4.8671516126  1.8120158968 -0.4882792698
H   4.4772140192  0.8124693247  0.9258467296
H   1.6315698041  3.4047126093  1.8457121833
H  -0.1593014573  0.5960519991  2.3508072343
H  -0.4242438331  2.3377627807  2.0649981411
H  -2.1892985270  0.8350884984  1.0070715873
H  -0.7742331702 -1.0815066729  0.5680710133
H   0.5366610807  0.6668055059 -1.5896452627
H   1.9552459961 -1.2833260222 -2.1458930915
H   1.1365685395 -2.2749235501 -0.9286131132
H  -0.1345066016 -1.0251523638 -3.4427311521
H   0.2402312214 -2.7546452004 -3.2103374661
H  -1.7649319447  0.0962945425 -2.0672806496
H  -3.7792106002  0.1381182071 -0.8435069313
H  -3.3924518676 -1.3446906753  0.0768082115
H  -4.6666187867 -1.2094689432 -2.6201089460
H  -4.3560649556 -2.6604805983 -1.6369711341
H  -2.9303581949 -0.2725946131 -4.1281207534
H  -1.7150710850 -1.4432326751 -4.8073675077
H  -3.7870931854 -2.0181876427 -6.1884780463
H  -4.8259761209 -1.9447576941 -4.6738300000
H  -0.6909944010 -3.1225596072 -0.2613017910
H  -2.4203508855 -3.4277535308 -0.6133524146
H  -1.1670249317 -4.1512570719 -1.6596637938
H  -2.6772220170  3.1096304225  0.1911558616
