56
M-V02 cycle 17
C   2.5612556196 -1.5761236306  3.0483170628
C   2.4243010633 -0.6935540939  1.7824174197
C   3.8271670763 -0.1870001256  1.3630993274
C   4.4293401842  0.8148381834  2.3513761980
C   3.4904503189  1.9641059675  2.7029674519
O   3.9068438302  3.0427780131  3.1185593799
C   2.0519727880  1.6997351929  2.5207811506
C   1.5449911396  0.5153378628  2.0810927381
C   0.0678494670  0.3685007022  1.8111416872
C  -0.4589488508 -1.0683492883  1.9110542503
C   0.3482853975 -2.0896528007  1.0295918986
C   1.7300331072 -1.4716000655  0.6179091731
C   2.6459743793 -2.5003323318 -0.0665080721
C   1.9758697774 -3.1428472614 -1.2851562550
C   0.6228440068 -3.7494601488 -0.9064651381
C  -0.2963518429 -2.6691629158 -0.2547600133
C  -1.6819927190 -3.3730180970 -0.2261684778
C  -1.6596126502 -4.3943975766 -1.3939270026
C  -0.2867099856 -4.2081678536 -2.0822636964
C  -0.3780670094 -3.2665291042 -3.3083681333
C  -0.6849351055 -4.2368599432 -4.4476493342
C  -0.0280202050 -5.5362549720 -3.9911106175
O   0.2651247674 -6.5099749272 -4.6398099261
O   0.1954551722 -5.4584142453 -2.6404119241
C   0.8581026049 -4.9628965364  0.0229805737
S  -2.2835786379 -1.0391026670  1.5673329832
H   3.0544311478 -1.0178731200  3.8667730204
H   3.1743955829 -2.4739896622  2.8295640758
H   1.5845336363 -1.9190524514  3.4374121003
H   3.7378366306  0.2951440329  0.3648346332
H   4.5176345577 -1.0456967826  1.2423022862
H   5.3739495312  1.2541320012  1.9739885544
H   4.6942533535  0.3136021876  3.3088397323
H   1.3861827104  2.5504629469  2.7423402972
H  -0.5079410121  1.0363184465  2.4825414051
H  -0.1395248738  0.7385829164  0.7808978836
H  -0.3668659575 -1.4015855808  2.9629658262
H   0.5462051560 -2.9566007427  1.6925019105
H   1.5043829651 -0.7035249974 -0.1588065096
H   3.5776743498 -2.0036920914 -0.3984252568
H   2.9580047110 -3.2769758292  0.6629315051
H   1.8334347439 -2.3507658384 -2.0500645947
H   2.6348685880 -3.9128916066 -1.7386959027
H  -0.3648511252 -1.8292766146 -0.9836152480
H  -2.5077900569 -2.6504286911 -0.3468204852
H  -1.8516904692 -3.8765828509  0.7459569931
H  -2.4956002287 -4.2462762378 -2.1059148190
H  -1.7320254367 -5.4377236984 -1.0323666445
H  -1.1406526896 -2.4772081358 -3.1704872616
H   0.5941057061 -2.7698722938 -3.4936099600
H  -0.3043029395 -3.9398684485 -5.4422866323
H  -1.7727710452 -4.4339633193 -4.5584739442
H   1.4993712756 -4.7053552426  0.8853423740
H  -0.0817532281 -5.3803022960  0.4299793012
H   1.3597759886 -5.7680526151 -0.5459678934
H  -2.5601474964 -0.2022930243  2.6081065881
