56
 energy: -77.944078685221 gnorm: 0.000454818839 xtb: 6.7.1 (edcfbbe)
C            2.74603652489841       -1.62650500918529        2.25342286281930
C            2.65676253329241       -0.25364069773551        1.56198696097635
C            3.98043663796092        0.06019934326884        0.84021447083593
C            5.12982288816635        0.34661421946980        1.79860468527973
C            4.79420655627596        1.48298697861288        2.72427752415192
O            5.64378502076779        2.25407571142410        3.15852753886540
C            3.39854062239620        1.56691001150521        3.11853828524020
C            2.42560150132907        0.77363672353398        2.64324949065691
C            1.05258303867897        0.84603731409145        3.23004935368908
C           -0.01684532070974        0.96932394167409        2.15485019465889
C            0.10525025303392       -0.18387624237056        1.16078771530232
C            1.50279454767444       -0.19584659396495        0.51900946330116
C            1.61130869856296       -1.31149699697024       -0.52933611621362
C            0.51872949871167       -1.20838919199651       -1.59834238484236
C           -0.86479736864995       -1.23271361588237       -0.95016128860657
C           -0.93595784326959       -0.07079857167016        0.05123028711902
C           -2.41030582291460       -0.01538072285169        0.45394096679398
C           -3.16021648601500       -0.43418225297948       -0.82342315094151
C           -2.08847858626007       -0.90014493560602       -1.84295748849241
C           -1.88432372500808        0.12903536842708       -2.96817203762401
C           -2.91198585472166       -0.30234022806767       -4.00842056979186
C           -3.05809981354221       -1.78069946859563       -3.72625801368866
O           -3.55442352658660       -2.61660052815396       -4.44782949255737
O           -2.56231974435793       -2.07871519830920       -2.53661526974366
C           -1.11937129502448       -2.60732228587260       -0.31927249139480
S            0.10011818020027        2.60845158187307        1.29449340046578
H            3.38052691763489       -1.56170493181303        3.13419906691523
H            3.17317144925935       -2.36234704564725        1.57923640464670
H            1.76666079369400       -1.97024016526000        2.57076799724393
H            3.83711677435123        0.93703717685145        0.20438801332676
H            4.26199100070647       -0.77646941509169        0.20245709829404
H            6.04611304550622        0.58354877423987        1.25565892801274
H            5.33604390555046       -0.52633750329840        2.42308389009299
H            3.18447715888773        2.30173121857594        3.88430947583809
H            0.86364752194317       -0.07921233768432        3.78209755727317
H            0.98276223586673        1.67291055650961        3.93872921819779
H           -1.00896280514634        0.96545993874751        2.61029791101208
H           -0.06684219853598       -1.10567199077245        1.72187664189534
H            1.60599565779702        0.76190249055032       -0.00623072461066
H            2.57420256099409       -1.24069633584877       -1.03394273872351
H            1.56041588022533       -2.28487889542646       -0.04729798734031
H            0.66594713266232       -0.26887757639963       -2.13245844443851
H            0.62271488505161       -2.02958376188417       -2.30994471436416
H           -0.71135218544193        0.84484356801258       -0.50790492338946
H           -2.70105054314945        0.98409772175391        0.77259417443929
H           -2.61213219194026       -0.70566838172718        1.27197237104023
H           -3.74233288416811        0.39003182312489       -1.23094449986905
H           -3.84736608475284       -1.25820949674637       -0.63294147485096
H           -2.03025969351795        1.14555949847926       -2.61485210528577
H           -0.88681876084869        0.04002301612493       -3.39425741081057
H           -2.61084959643656       -0.13331399924664       -5.03915444342605
H           -3.88676084712380        0.16418103355332       -3.85630840654252
H           -0.38869435951040       -2.83916169083823        0.44629181112726
H           -2.10866686463448       -2.66252194701655        0.12100624928053
H           -1.06034968540664       -3.36948658970550       -1.09274336391833
H            1.13380063646482        3.07643660455993        1.98061954325157
