56
candidate 048 CONTROLLED_LOCAL MIN01
C   2.1449477930 -0.6628642733  1.7188428019
C   1.7442678901 -0.3309589022  0.2590201968
C   2.8639881553  0.4940656345 -0.4250983144
C   2.9578634250  1.9413122117  0.0568651649
C   1.6324387089  2.6741051596 -0.0930440249
O   1.5587373938  3.8826200690 -0.2964906288
C   0.4285059002  1.8366339650  0.0884934616
C   0.4544086898  0.4914841002  0.3041368959
C  -0.8124465406 -0.2487763447  0.6401553731
C  -1.0264552346 -1.4615377974 -0.2746995070
C   0.2006667731 -2.3911180833 -0.2117952906
C   1.4998458888 -1.6359237254 -0.5859925460
C   2.7257754207 -2.5730129854 -0.6127706974
C   2.5093377766 -3.8281065209 -1.4745175286
C   1.2546669200 -4.5922315476 -1.0273117764
C   0.0497982323 -3.6266834592 -1.0988399939
C  -1.1856932557 -4.5283946852 -0.9162755100
C  -0.7518046668 -5.8993672924 -1.5010757857
C   0.7289731935 -5.7291263174 -1.9546247631
C   0.8435660533 -5.4964570944 -3.4808479383
C   0.9283106391 -6.9211252532 -4.0254007998
C   1.5941558985 -7.6919315413 -2.8888131470
O   2.1409270312 -8.7670004837 -2.9148990734
O   1.4752436963 -6.9560216501 -1.7377348675
C   1.4749141503 -5.1779966830  0.3835127289
S  -1.4490787620 -1.1041231465 -2.0835799311
H   2.2095828519  0.2589883824  2.3295569886
H   3.1332210317 -1.1611096659  1.7551132083
H   1.4123007562 -1.3326901520  2.2104292441
H   2.6664398684  0.4977423144 -1.5196855178
H   3.8391187679 -0.0138276189 -0.2852202921
H   3.7366858229  2.5140137520 -0.4836028100
H   3.2326223027  1.9822765657  1.1350735921
H  -0.5274748817  2.3858639445  0.1072468194
H  -0.7270769755 -0.6377604114  1.6806506015
H  -1.6824283363  0.4350971686  0.6151753735
H  -1.9414357652 -2.0006033446  0.0440697054
H   0.2662357765 -2.7266328642  0.8492301123
H   1.3386698189 -1.2871409918 -1.6328052919
H   3.6062947605 -2.0227066585 -0.9999502705
H   2.9884147729 -2.8758330923  0.4211801061
H   2.3931177014 -3.5049073843 -2.5300791981
H   3.4065830345 -4.4813343014 -1.4329909987
H   0.0185094043 -3.2374963033 -2.1418731719
H  -2.0751897543 -4.1120620130 -1.4285884138
H  -1.4491331939 -4.6233909278  0.1579200723
H  -1.3925598904 -6.2264225653 -2.3437646294
H  -0.7940300198 -6.7029175939 -0.7412121640
H  -0.0034473828 -4.9069271482 -3.8791029382
H   1.7772473915 -4.9518674556 -3.7207094687
H   1.5044020540 -7.0395552445 -4.9616316286
H  -0.0719326881 -7.3737734430 -4.1965850403
H   1.7494516159 -4.3962648076  1.1159981471
H   0.5759177627 -5.6918660930  0.7738436835
H   2.2903960407 -5.9251430129  0.3547042675
H  -0.5815964959 -0.0173044658 -2.2262389750
