56
VALIDATION_AUXILIARY recovered H56 + displacement along S26-to-H56
C   2.713736204400000 -1.697345558100000  3.108582392600000
C   2.488899676300000 -0.909873246400000  1.792927357100000
C   3.826620832100000 -0.246608290300000  1.380999957400000
C   4.309947028000000  0.756717035800000  2.436626153300000
C   3.241559060100000  1.733621032300000  2.947366265600000
O   3.551114963200000  2.740438671100000  3.577485323000000
C   1.843143594300000  1.444614717700000  2.561717992100000
C   1.485074927100000  0.278991159000000  1.967204383400000
C   0.199339975100000  0.009305259400000  1.263076579900000
C  -0.327535479500000 -1.369880202800000  1.832661462600000
C   0.478754833000000 -2.427356100600000  0.994652373600000
C   1.919303129600000 -1.851586956900000  0.669302914100000
C   2.815361661300000 -3.004482566900000  0.187788281500000
C   2.215813712700000 -3.663069848100000 -1.075786077900000
C   0.766225969200000 -4.137305567400000 -0.854392282300000
C  -0.100211174300000 -2.966560697500000 -0.306821286700000
C  -1.540489661800000 -3.507808137300000 -0.349352637200000
C  -1.544167480400000 -4.488949794600000 -1.554450537500000
C  -0.085343343500000 -4.510621631500000 -2.105460621900000
C   0.075464655100000 -3.610565115800000 -3.355763565000000
C  -0.267303686600000 -4.564983368300000 -4.498078467700000
C   0.149339365200000 -5.928359245100000 -3.953431045800000
O   0.353231313700000 -6.956489656900000 -4.550745858600000
O   0.261981524500000 -5.834790110500000 -2.590638952900000
C   0.786536882800000 -5.358578894800000  0.092601249100000
S  -0.908098445300000 -2.445331074600000  3.309297556600000
H   2.961408271900000 -1.022658663700000  3.949732591600000
H   3.553998764300000 -2.410826005200000  2.983873220000000
H   1.829353352800000 -2.284352093800000  3.428297142800000
H   3.679314087000000  0.273311721100000  0.409380875400000
H   4.604384509500000 -1.020996491800000  1.214806286900000
H   5.150656791200000  1.375424175300000  2.062716657000000
H   4.712562036600000  0.229686573500000  3.328522329900000
H   1.123391565400000  2.269513035000000  2.690007061700000
H  -0.502358965500000  0.858583126200000  1.413858490200000
H   0.304222418600000 -0.080560544900000  0.166008075900000
H   0.514410824300000 -1.312240898900000  2.558831881100000
H   0.639431126400000 -3.306921639700000  1.655590337100000
H   1.810590654500000 -1.197359707400000 -0.224720265800000
H   3.830806921300000 -2.630343287200000 -0.055715843000000
H   2.948208969000000 -3.755697399700000  0.994490140800000
H   2.243992748100000 -2.906678186400000 -1.888412892200000
H   2.850404399700000 -4.511298369600000 -1.408384418400000
H  -0.032207223600000 -2.147658097100000 -1.061950085800000
H  -2.278651036900000 -2.689870453300000 -0.459073582400000
H  -1.787798618600000 -4.027188508900000  0.597693950400000
H  -2.263074441500000 -4.195032200400000 -2.345057276300000
H  -1.815515176800000 -5.517096518400000 -1.247427831800000
H  -0.568731940600000 -2.712601465400000 -3.309860737100000
H   1.124616008700000 -3.270292072500000 -3.456695488700000
H   0.240607827300000 -4.360903639200000 -5.458713917800000
H  -1.357987898500000 -4.606970200400000 -4.706024083800000
H   1.361944557800000 -5.156010581200000  1.014851002400000
H  -0.225405608900000 -5.680384364500000  0.402421458400000
H   1.261930199900000 -6.212998109600000 -0.424357449500000
H  -1.999861824715843 -1.783929718666415  3.803822183752428
