56
CURV-MIN04-S_H-CHI-S1P0-PM; anchor=MIN04; pair=('S_H', 'CHI'); scale=1.0
C   2.496876735300 -2.121506003100  3.363924974000
C   2.407821283503 -1.183035651383  2.149982213455
C   3.817031710500 -0.593431211600  1.849811290900
C   4.315638693600  0.344926602200  2.952438645200
C   3.308256606500  1.420824699900  3.349414810800
O   3.655806953100  2.463927992300  3.897739170000
C   1.897406017900  1.139030799900  3.026716883400
C   1.471285848233 -0.001532396989  2.429758758044
C   0.042133303480 -0.173125759809  1.976401029972
C  -0.446492119185 -1.622324485314  2.036075275686
C   0.439140865900 -2.593054225200  1.168346345500
C   1.832004307700 -1.922042199500  0.890728552300
C   2.823332402500 -2.894764000600  0.230850168100
C   2.259661109500 -3.491617917700 -1.063368825500
C   0.898058688400 -4.146843737800 -0.816666433400
C  -0.098797273100 -3.126726135400 -0.180281367500
C  -1.456846311300 -3.875458221600 -0.279669253100
C  -1.323475296800 -4.826062545900 -1.499043383000
C   0.088927459600 -4.568689566100 -2.076582809300
C   0.057310372200 -3.567437193700 -3.257982280500
C  -0.138359357800 -4.484524229500 -4.464028591700
C   0.516650847800 -5.791216531400 -4.025077214900
O   0.875087444200 -6.725805635100 -4.698188573600
O   0.646910374600 -5.774866890500 -2.660501615000
C   1.100544756900 -5.400484718000  0.066668296700
S  -2.276624792207 -1.680788600825  1.836869576626
H   2.917376427700 -1.594429121400  4.241153563000
H   3.151492199600 -2.988073161700  3.139387116300
H   1.510122625000 -2.514965269000  3.671239802400
H   3.769261942600 -0.035555731600  0.888794110200
H   4.547723018100 -1.414647804200  1.706373497700
H   5.256859354500  0.855953256200  2.668024596200
H   4.555389625700 -0.225161714000  3.877247058300
H   1.189959323500  1.953854124200  3.253289550800
H  -0.632385157400  0.473588878300  2.590745433200
H  -0.039653606100  0.202141856200  0.942314553000
H  -0.363061290300 -1.959537760400  3.083874932200
H   0.612106733700 -3.484637594900  1.805955245500
H   1.646129988500 -1.127224905300  0.130488594800
H   3.763721838900 -2.361548818900 -0.007680999600
H   3.101510566000 -3.699299359700  0.943374091200
H   2.155543540300 -2.667924263500 -1.800737040300
H   2.969512775400 -4.225343451500 -1.500098235200
H  -0.142609453600 -2.255647258900 -0.875396425000
H  -2.303487779900 -3.179360034800 -0.395158889400
H  -1.663396847600 -4.438376752100  0.651518362700
H  -2.110685422500 -4.655459127300 -2.260153456600
H  -1.393264720200 -5.890379088300 -1.204208617300
H  -0.737374962200 -2.807492915600 -3.137212480400
H   1.024438201200 -3.035309149300 -3.346087926800
H   0.308282259100 -4.128322884200 -5.410685527000
H  -1.209211775100 -4.699483951400 -4.667626909300
H   1.682019013800 -5.173489572400  0.978563333600
H   0.146769342800 -5.854731993300  0.393763672000
H   1.653916844100 -6.166750837100 -0.507966503300
H  -2.326707495923 -0.988677454280  0.651008415417
