56
CURV-MIN02-PHI-PSI-S1P0-MP; anchor=MIN02; pair=('PHI', 'PSI'); scale=1.0
C   2.081969398900 -0.855226636700  1.132750363700
C   1.724900326163  0.286233550320  0.149273788357
C   2.978348420700  0.709809262500 -0.657996153900
C   4.021465525800  1.464583366300  0.165030473600
C   3.427987057800  2.679564039500  0.865168504700
O   4.092247244000  3.675980894300  1.138457069200
C   2.009408031100  2.555034022900  1.251890068600
C   1.231771525675  1.454039526002  0.977890113793
C  -0.157073002326  1.394900721089  1.547750840525
C  -1.207973110045  0.996620090791  0.505974510211
C  -0.802224923800 -0.284827117100 -0.226849990600
C   0.605614000300 -0.154626503900 -0.865269836100
C   0.984613701600 -1.417050291000 -1.668589080600
C  -0.085760020000 -1.830820842600 -2.692731264500
C  -1.452219428600 -2.016097610700 -2.016361794200
C  -1.816625680800 -0.698195808300 -1.295646730300
C  -3.294848840300 -0.861066983900 -0.897558368900
C  -3.884765878400 -1.799030270400 -1.984637418100
C  -2.703735401800 -2.162706202700 -2.934095269200
C  -2.723163274300 -1.318608849800 -4.231899121500
C  -3.612361621500 -2.152050331400 -5.152862791300
C  -3.376031897900 -3.580182843200 -4.669437830900
O  -3.608521433000 -4.622483517000 -5.230492139200
O  -2.831849771500 -3.527920676400 -3.411718786400
C  -1.404028585900 -3.228167305700 -1.062386528400
S  -1.465814830330  2.368797698913 -0.721172288784
H   2.785924680800 -0.499493263500  1.910231699100
H   2.563186381300 -1.700800381700  0.603678270700
H   1.188210730700 -1.250036165100  1.655164890700
H   2.641588562100  1.365104878700 -1.490614984800
H   3.441008771400 -0.182848234700 -1.124795338400
H   4.876866768300  1.803210139800 -0.451853846900
H   4.451235801100  0.810849056800  0.957223186900
H   1.611030812500  3.394089626300  1.845979305500
H  -0.157575889900  0.557127575300  2.320773322300
H  -0.422922638300  2.301369132800  2.089540677600
H  -2.186865053700  0.828729201500  1.015680326100
H  -0.775431034300 -1.079510892100  0.553523701600
H   0.524870262000  0.683909790700 -1.594276646100
H   1.939955718200 -1.243457791300 -2.202469932200
H   1.174995601100 -2.260325089300 -0.974048846800
H  -0.154579526700 -1.032564175700 -3.461078236600
H   0.224213412500 -2.758888350400 -3.218087414200
H  -1.778131682300  0.095482316100 -2.077631227400
H  -3.807669669200  0.119286158800 -0.851164202900
H  -3.381283204800 -1.320749676900  0.108982533600
H  -4.718015072800 -1.331385582200 -2.545600982200
H  -4.282817298300 -2.735341357900 -1.548991119300
H  -3.088917552600 -0.289405292200 -4.056678335000
H  -1.705988903000 -1.247916409300 -4.663434577500
H  -3.390448315500 -2.068105078500 -6.232727588500
H  -4.692774491700 -1.928103490000 -5.021731240200
H  -0.597004986300 -3.131125885100 -0.312640291200
H  -2.351824083500 -3.369890830700 -0.509023235300
H  -1.224693007200 -4.152307018300 -1.643544997900
H  -1.710472327438  3.326508417184  0.215652588697
