56
CURV-MIN01-S_C-CHI-S1P0-PP; anchor=MIN01; pair=('S_C', 'CHI'); scale=1.0
C   2.051361481600 -0.598442471100  1.774445302900
C   1.682980172397 -0.255845257645  0.300281443473
C   2.802273844000  0.607125125000 -0.331433791300
C   2.847589059800  2.048829739100  0.173599231400
C   1.509599646400  2.752122665700 -0.003523147000
O   1.412493976100  3.961452947100 -0.191729018100
C   0.321607318000  1.883700058700  0.131696940800
C   0.366068945067  0.549262087112  0.328987301178
C  -0.891589425847 -0.250615503039  0.629977920783
C  -1.033680067555 -1.447889264741 -0.313575442536
C   0.204439787800 -2.343309757100 -0.235224264800
C   1.495017846800 -1.551993183700 -0.561467782700
C   2.743481985900 -2.459223358800 -0.566689900600
C   2.581730784000 -3.706084897600 -1.452062979800
C   1.333792672900 -4.506363213700 -1.051708028300
C   0.108452662300 -3.568716954000 -1.143736837000
C  -1.109554612700 -4.502118542900 -1.009305089800
C  -0.626417848500 -5.853519303000 -1.601007221300
C   0.861988282000 -5.641431367300 -2.009734066800
C   1.013809594200 -5.383332816200 -3.528601769500
C   1.148206690500 -6.797294274400 -4.090784339400
C   1.800237664600 -7.568977865900 -2.946807163400
O   2.373321840600 -8.630259813000 -2.972643843500
O   1.631266637100 -6.853376039600 -1.789202955000
C   1.528351607400 -5.107749244200  0.356317924700
S  -1.492771457795 -0.880285778646 -2.032079883208
H   2.076519962000  0.315457443400  2.399837839300
H   3.049964526300 -1.073582714100  1.831731571300
H   1.321563640700 -1.292734463100  2.235367595400
H   2.635557406800  0.622465670600 -1.431038396000
H   3.785062293200  0.120481062600 -0.171104286300
H   3.627250154400  2.647861580800 -0.336250201000
H   3.090845921200  2.080189529800  1.259668563700
H  -0.647503891200  2.409749071500  0.131053185500
H  -0.822483323400 -0.632746591000  1.658249349900
H  -1.769821814400  0.422824822400  0.568627468000
H  -1.935136631000 -2.025260951900 -0.015242437900
H   0.248223028300 -2.692988295000  0.822344794800
H   1.354973187600 -1.191532941700 -1.607364504700
H   3.620999640900 -1.882454830800 -0.920752343200
H   2.984172278600 -2.771139231300  0.469896025500
H   2.487474945600 -3.370000707100 -2.505788978200
H   3.492962272600 -4.338385149500 -1.394325604900
H   0.097124217900 -3.164842500800 -2.181581206800
H  -1.994082674600 -4.099402879500 -1.540748058100
H  -1.400731412100 -4.619377056300  0.055489514200
H  -1.235136437700 -6.183061016400 -2.466178206500
H  -0.670585166000 -6.669107890800 -0.854191785900
H   0.164346108000 -4.808183898900 -3.942364831900
H   1.940447466600 -4.813218142200 -3.733988677000
H   1.753092607800 -6.888020225400 -5.011825584200
H   0.164393362200 -7.270942149700 -4.296818722300
H   1.763226384200 -4.330753407400  1.107398307700
H   0.631401283000 -5.648580713100  0.713523702100
H   2.362121510900 -5.834820511600  0.340088343300
H  -0.590826596767  0.141970116958 -2.092314863590
