56
MIN01 minus_a; q=-0.050000000000000003 sqrt(amu) Angstrom
C   2.051839708681 -0.598658191475  1.774059191182
C   1.683453094130 -0.254715329428  0.308548460126
C   2.800899377675  0.607201860673 -0.332431219194
C   2.846010195510  2.048984177637  0.172409766984
C   1.507655831482  2.751772400373 -0.003890437592
O   1.409913652300  3.961008696124 -0.192343720375
C   0.320120980668  1.882936286913  0.132539534336
C   0.373134833555  0.535756667677  0.329822710418
C  -0.883988549890 -0.239802989701  0.619444288702
C  -1.042262785090 -1.442090831207 -0.320163191931
C   0.204096139893 -2.343864158739 -0.235014089074
C   1.494585588356 -1.552524539885 -0.561447214087
C   2.743212996893 -2.459445544778 -0.567230770111
C   2.581192069364 -3.706211053001 -1.452721334275
C   1.333616101185 -4.506765156535 -1.051789604492
C   0.107947787519 -3.569421238375 -1.143370690098
C  -1.109682446318 -4.503266257796 -1.008186986985
C  -0.626404643587 -5.854608609871 -1.599966837139
C   0.861723122403 -5.642091002836 -2.009481796465
C   1.012692694523 -5.384082050608 -3.528448217856
C   1.147262104144 -6.798045141826 -4.090588154905
C   1.800142930493 -7.569415933856 -2.946891768603
O   2.373579333067 -8.630502072577 -2.972951280150
O   1.631513603877 -6.853779292970 -1.789247939422
C   1.528984599947 -5.107999242013  0.356200130025
S  -1.474651827491 -0.893038834715 -2.035420731123
H   2.077064932622  0.315226419794  2.399473669732
H   3.050628481263 -1.073481788516  1.830720735232
H   1.322535546719 -1.293210780343  2.235373978489
H   2.633386751728  0.622358815571 -1.431918862321
H   3.784001509331  0.120968631832 -0.172780368030
H   3.625130393365  2.648237978026 -0.338003863675
H   3.089942840530  2.080533502800  1.258323895565
H  -0.649209075331  2.408582518002  0.132656858660
H  -0.822259275898 -0.635142838160  1.659192881748
H  -1.770370555540  0.421374819544  0.571007006483
H  -1.936056134553 -2.024798944839 -0.018548566167
H   0.247609656949 -2.693382573876  0.822619775075
H   1.354105468942 -1.192208746724 -1.607305439523
H   3.620427728817 -1.882465081738 -0.921712358527
H   2.984546522505 -2.771468001144  0.469173258853
H   2.486294110880 -3.369994936463 -2.506349463310
H   3.492554545656 -4.338374663761 -1.395562674049
H   0.096117483126 -3.165663343385 -2.181264502224
H  -1.994706006870 -4.101032677401 -1.539168518905
H  -1.400215647060 -4.620474632056  0.056788466979
H  -1.235460637519 -6.184460043966 -2.464782746631
H  -0.669935299544 -6.670112103502 -0.853021386991
H   0.162841256395 -4.809242807690 -3.941843185677
H   1.939039278468 -4.813673263237 -3.734339642912
H   1.751695790780 -6.888643750797 -5.011938848655
H   0.163496911684 -7.272034284264 -4.296070477361
H   1.763828770722 -4.330873990360  1.107153702494
H   0.632425941534 -5.649217967109  0.713797876080
H   2.363064357216 -5.834709654050  0.339650023146
H  -0.607020054537  0.159482367652 -2.073195747548
