56
MIN01 plus_half_a; q=0.025000000000000001 sqrt(amu) Angstrom
C   2.051122368059 -0.598334610912  1.774638358759
C   1.684274632685 -0.254191201486  0.308757479537
C   2.802961077162  0.607086757163 -0.330935077353
C   2.848378491945  2.048752519831  0.174193963608
C   1.510571553859  2.752297798364 -0.003339501704
O   1.413784138000  3.961675072588 -0.191421666963
C   0.322350486666  1.884081944594  0.131275644032
C   0.374287112322  0.536829817662  0.328264205741
C  -0.883495946605 -0.237967034550  0.617279658949
C  -1.042637262205 -1.442365667947 -0.319588516835
C   0.204611611753 -2.343032556281 -0.235329352663
C   1.495233976022 -1.551727505608 -0.561478067006
C   2.743616480404 -2.459112265811 -0.566419465845
C   2.582000141318 -3.706021819899 -1.451733802562
C   1.333880958757 -4.506162242283 -1.051667240204
C   0.108705099691 -3.568364811813 -1.143919910451
C  -1.109490695891 -4.501544685452 -1.009864141208
C  -0.626424450957 -5.852974649564 -1.601527413380
C   0.862120861799 -5.641101549532 -2.009860201967
C   1.014368044039 -5.382958198996 -3.528678545322
C   1.148678983678 -6.796918840687 -4.090882431647
C   1.800285031654 -7.568758831922 -2.946764860798
O   2.373193094367 -8.630138683211 -2.972490125175
O   1.631143153712 -6.853174412915 -1.789180462789
C   1.528035111126 -5.107624245293  0.356376822038
S  -1.483096767654 -0.900367662642 -2.034994905688
H   2.076247476689  0.315572955203  2.400019924084
H   3.049632548818 -1.073633176892  1.832236989334
H   1.321077687690 -1.292496304478  2.235364403855
H   2.636642734336  0.622519098114 -1.430598162840
H   3.785592685135  0.120237277984 -0.170266245435
H   3.628310034918  2.647673382187 -0.335373369662
H   3.091297461535  2.080017543300  1.260340897767
H  -0.646651299134  2.410332348249  0.130251348920
H  -0.822595347151 -0.631548467420  1.657777583976
H  -1.769547443830  0.423549823828  0.567437698758
H  -1.934676879224 -2.025491955430 -0.013589373767
H   0.248529713975 -2.692791155562  0.822207304662
H   1.355407046929 -1.191195039188 -1.607394037288
H   3.621285596941 -1.882449705331 -0.920272335536
H   2.983985156648 -2.770974846378  0.470257408823
H   2.488065362960 -3.370003592419 -2.505508735645
H   3.493166136072 -4.338390392370 -1.393707070326
H   0.097627585287 -3.164432079508 -2.181739559088
H  -1.993771008465 -4.098587980550 -1.541537827697
H  -1.400989294620 -4.618828268422  0.054840037811
H  -1.234974337790 -6.182361502617 -2.466875936434
H  -0.670910099228 -6.668605784449 -0.854776985354
H   0.165098533802 -4.807654444505 -3.942625655011
H   1.941151560666 -4.812990581681 -3.733813194044
H   1.753791016310 -6.887708462701 -5.011768951973
H   0.164841587458 -7.270396082418 -4.297192844769
H   1.762925190939 -4.330693115920  1.107520610303
H   0.630888953733 -5.648262086096  0.713386615110
H   2.361650087742 -5.834875940375  0.340307503377
H  -0.613391769632  0.150160823824 -2.082321101876
