56
phi300_psi060_neighbor_seed
C   2.5776075991 -1.5594672798  2.8135039534
C   2.2704843915 -0.5262412511  1.6950692609
C   3.5871311262  0.2438302892  1.3597114823
C   4.1459651156  0.9355224828  2.6330797849
C   3.1234187743  1.7687125125  3.4548634773
O   3.4818601674  2.5888802109  4.3349089451
C   1.7094995432  1.6226065795  3.0245896728
C   1.3000881499  0.6602879277  2.1693963014
C   0.0992716804  0.5360681933  1.2987322029
C  -0.4554605105 -0.8794977247  1.7038800867
C   0.1634999990 -1.9346379208  0.7077312552
C   1.6428897785 -1.3121928662  0.4268972314
C   2.5391997116 -2.4326137475 -0.1792002169
C   1.8701246912 -3.1087279948 -1.4301894060
C   0.4450817920 -3.6448868948 -1.1201368942
C  -0.4174973184 -2.4222118062 -0.6223642573
C  -1.8666965303 -2.9461437776 -0.6175300660
C  -1.9171712603 -3.9666950923 -1.8053081907
C  -0.4413266545 -4.1902838438 -2.3021390769
C  -0.2064596618 -3.5987695762 -3.7112105222
C  -0.8240662386 -4.6718145780 -4.6290019331
C  -0.5021776718 -5.9944710185 -3.9039213830
O  -0.4888559473 -7.1468070778 -4.3337643776
O  -0.2150352793 -5.6884870735 -2.5377816112
C   0.5131742594 -4.8034829379 -0.0922778236
S  -1.1339955093 -1.7893269935  3.3909569718
H   2.6719742348 -1.0666001024  3.7921084130
H   3.5264797211 -2.0766398071  2.5884708150
H   1.7972980316 -2.3368958421  2.8829516115
H   3.3733803269  1.0035330783  0.5868584889
H   4.3453758539 -0.4517890246  0.9582962949
H   4.9756454059  1.6148613307  2.3716814801
H   4.5777898855  0.1748663808  3.3090765381
H   1.0344234221  2.4196025829  3.3456133781
H  -0.6240731419  1.3522367789  1.4873312373
H   0.3236732965  0.5593436505  0.2276104056
H   0.4445658988 -1.1074896419  2.3134260322
H   0.3012501631 -2.8404299506  1.3197666362
H   1.5318233602 -0.5678770141 -0.3845101782
H   3.5013179745 -1.9965151066 -0.5033134120
H   2.7642492926 -3.1994416463  0.5793336716
H   1.8035138321 -2.3490572602 -2.2307239423
H   2.5189756897 -3.9259526534 -1.7916671718
H  -0.3326329656 -1.6280985886 -1.3926398232
H  -2.5878045558 -2.1232866475 -0.7414711615
H  -2.0836741993 -3.4429817157  0.3405383858
H  -2.5413155751 -3.5823159367 -2.6272877970
H  -2.3218102990 -4.9379218926 -1.4873888192
H  -0.6699709396 -2.6063137515 -3.8163467576
H   0.8732612863 -3.5218768426 -3.9132808876
H  -0.4293029327 -4.6803471935 -5.6537235117
H  -1.9227266032 -4.5617360971 -4.6779252207
H   1.2130731891 -4.5941890025  0.7284358603
H  -0.4797314345 -5.0115054430  0.3359998023
H   0.8441260666 -5.7053475067 -0.6260463677
H   0.0508871639 -1.6246965465  4.0990885405
