56
phi300_psi+060 cycle 2
C   2.5713760472 -1.5560214950  2.8312667511
C   2.2563455593 -0.5678342952  1.6754139606
C   3.5619386330  0.1810931204  1.2992367908
C   4.1244656177  0.9136346251  2.5304418577
C   3.0981536176  1.7524284263  3.3092263501
O   3.5025657910  2.5733872873  4.1301584988
C   1.6762451301  1.6157266986  2.9285647073
C   1.2724941449  0.6176618318  2.1088653869
C   0.0479471479  0.4734040536  1.2833365232
C  -0.4931829229 -0.9269659756  1.7145480668
C   0.1636074688 -1.9706997903  0.7453848735
C   1.6347966546 -1.3733409135  0.4441086852
C   2.5247139726 -2.4886446256 -0.1433562847
C   1.8570899665 -3.1447824858 -1.3817191503
C   0.4374473303 -3.6600599811 -1.0758190358
C  -0.4218996196 -2.4552271643 -0.5709207877
C  -1.8667242744 -2.9778429728 -0.5809012282
C  -1.9082134446 -3.9529513576 -1.7898547220
C  -0.4344815843 -4.1472994774 -2.2747942675
C  -0.1640238451 -3.5020170895 -3.6455497961
C  -0.7513533771 -4.5329395218 -4.6094155980
C  -0.4512926759 -5.8485051151 -3.9043605319
O  -0.4185625275 -6.9670947437 -4.3534156539
O  -0.2080788138 -5.5916707740 -2.5584461523
C   0.5115278447 -4.8221393824 -0.0509116615
S  -1.0951584406 -1.7519270586  3.3897649142
H   2.6682020452 -1.0318898485  3.7997154024
H   3.5236781960 -2.0859623027  2.6310084031
H   1.7913606213 -2.3355709832  2.9400421321
H   3.3392881877  0.9119920452  0.4944227307
H   4.3221306078 -0.5288294169  0.9131034807
H   4.9516258498  1.5950797251  2.2484059864
H   4.5665220087  0.1853236526  3.2419226534
H   0.9995100372  2.4283375274  3.2379917598
H  -0.6779585016  1.2958455862  1.4625496469
H   0.2555509539  0.4751165004  0.2039776446
H   0.4039997901 -1.1160071141  2.3319376424
H   0.3115037281 -2.8699106049  1.3725117461
H   1.5267894692 -0.6417929144 -0.3830777521
H   3.4935725790 -2.0607672483 -0.4718508374
H   2.7515905401 -3.2546322159  0.6237968722
H   1.7996667743 -2.3771423567 -2.1811177291
H   2.5001296289 -3.9689676189 -1.7536699993
H  -0.3355839607 -1.6471212147 -1.3324872907
H  -2.5948461291 -2.1526510666 -0.6905161307
H  -2.0930211520 -3.4967776929  0.3703364620
H  -2.5313073261 -3.5431512019 -2.6072834033
H  -2.3191961963 -4.9406054343 -1.5120687510
H  -0.6192759725 -2.4973778692 -3.7281974564
H   0.9268085476 -3.4193671036 -3.8150999055
H  -0.3259101562 -4.5209838523 -5.6289099904
H  -1.8532373386 -4.4340085854 -4.6945799150
H   1.2127404965 -4.6091333289  0.7746614550
H  -0.4785826086 -5.0441880594  0.3893870688
H   0.8518932542 -5.7331283937 -0.5718025548
H   0.0990322152 -1.5719796424  4.0308853545
