56
candidate 011 CARTESIAN_THERMAL MIN02
C   2.1185450010 -0.8652876497  1.1682410544
C   1.7040165063  0.2835653266  0.1466611635
C   2.9933874802  0.7102898908 -0.6893208543
C   3.9873754548  1.4500012494  0.1851868713
C   3.4601635909  2.6785858996  0.8480330490
O   4.0932685261  3.6843640535  1.1710627090
C   2.0160403825  2.5520290601  1.2364096047
C   1.2017452754  1.4819587568  0.9317173885
C  -0.1194955689  1.3899791755  1.5602979196
C  -1.2256230859  0.9951365986  0.4847311184
C  -0.7819879127 -0.2834920042 -0.1955047659
C   0.5627296457 -0.1489968875 -0.8627687400
C   1.0060855648 -1.4314285206 -1.6917071565
C  -0.0955955406 -1.8373052094 -2.6643098795
C  -1.4475556359 -2.0074807055 -2.0381400656
C  -1.8434036171 -0.7021442805 -1.2711098985
C  -3.2575538431 -0.8507641812 -0.9068405908
C  -3.9041920034 -1.7820658114 -2.0228498117
C  -2.6892731339 -2.1765586332 -2.9161945315
C  -2.7531549330 -1.3277904359 -4.2486353544
C  -3.5768657727 -2.1533102490 -5.1160474047
C  -3.3771220694 -3.5961642305 -4.6579007597
O  -3.6064885553 -4.6304970956 -5.2667684973
O  -2.8640433702 -3.5208071186 -3.3983968216
C  -1.3753303005 -3.2309850082 -1.0785242947
S  -1.4794935790  2.3738122012 -0.7090687012
H   2.7994874702 -0.4769667785  1.9137413194
H   2.5109153046 -1.7166802276  0.5757409504
H   1.2100646899 -1.2467048165  1.6823303908
H   2.6395819085  1.3620281557 -1.5079470796
H   3.4533225128 -0.2048595569 -1.0726974918
H   4.8544465135  1.7920078095 -0.4608289337
H   4.4986230951  0.8182034728  0.9153633432
H   1.5891253402  3.3935364974  1.8460343770
H  -0.1495928894  0.5741300960  2.2929433681
H  -0.4669384351  2.3291688088  2.1137197730
H  -2.1561230872  0.8272691385  1.0058495904
H  -0.7859187747 -1.0752090323  0.5194370338
H   0.5333119016  0.6866570087 -1.5725972692
H   1.9074805422 -1.2654933912 -2.2243132260
H   1.2127130262 -2.2638076790 -0.9326909863
H  -0.1645545423 -1.0328588201 -3.4648094302
H   0.2473430967 -2.7776674689 -3.2494275991
H  -1.8219028897  0.0978098850 -2.0662192209
H  -3.7787630339  0.1431720768 -0.8811444883
H  -3.3959816919 -1.3221958882  0.1470311143
H  -4.7073146623 -1.3303803913 -2.5470891375
H  -4.3157255206 -2.7196863467 -1.5987614408
H  -3.0342083965 -0.3065491769 -4.0540135209
H  -1.7182527266 -1.2598807882 -4.6893672253
H  -3.3629989782 -2.0719079788 -6.1986008055
H  -4.7246879604 -1.9420301504 -5.0277342522
H  -0.5677136892 -3.1224302437 -0.3394817223
H  -2.3604356960 -3.3466911273 -0.4785929956
H  -1.2312028122 -4.1688506889 -1.6431321511
H  -1.7292274213  3.3361203154  0.2347693784
