56
candidate 019 CARTESIAN_THERMAL MIN04
C   2.5366322769 -2.1147917550  3.3925209579
C   2.3901901962 -1.1937595858  2.1229711564
C   3.8431595804 -0.6011007087  1.9085353104
C   4.2642015446  0.3500638797  2.9461946805
C   3.3477049017  1.4075534908  3.2968669401
O   3.6526794434  2.4633256899  3.9158844193
C   1.9146700898  1.1559549112  2.9992024389
C   1.4409670339 -0.0268397925  2.4807598669
C   0.1010192109 -0.1681405029  1.9887245679
C  -0.4746011443 -1.6076971396  1.9852240352
C   0.4554242539 -2.6028919348  1.1978183800
C   1.7845511885 -1.9232668323  0.8578250173
C   2.8632798637 -2.8865693660  0.2724655768
C   2.2568117543 -3.5049940968 -1.0651159016
C   0.9036684903 -4.1426949460 -0.8637700703
C  -0.1360599345 -3.1057390847 -0.1601326249
C  -1.4074742720 -3.8840240539 -0.3047674222
C  -1.3403271239 -4.8232100390 -1.4518579125
C   0.1186683131 -4.5576055242 -2.0685841699
C   0.0058684560 -3.5794153050 -3.3209247308
C  -0.1008242285 -4.4840724002 -4.4555715830
C   0.5047701856 -5.7791452062 -4.0560784744
O   0.8842711848 -6.7374324146 -4.6563432587
O   0.6093998789 -5.7704792177 -2.6628173769
C   1.1457870223 -5.3814080958  0.0225685623
S  -2.3047077888 -1.6643331148  1.8556062619
H   2.9372930496 -1.6041954059  4.2175496506
H   3.0655936104 -2.9803162210  3.2296271714
H   1.5625322380 -2.5326870014  3.6523682017
H   3.7754649182 -0.0481393021  0.8085064805
H   4.5527616517 -1.4090644762  1.7420930845
H   5.1996577597  0.8256709819  2.6364488203
H   4.6264296822 -0.2296276228  3.9552316393
H   1.1701461652  1.9847213004  3.2477572321
H  -0.5874254985  0.4596308180  2.5140288465
H  -0.1102856335  0.2030964676  0.9790028758
H  -0.3143046688 -1.9329911166  3.0211629273
H   0.5896873950 -3.4989661243  1.8602856291
H   1.6761362731 -1.1287713398  0.1186838255
H   3.7193457326 -2.3528576621 -0.0752481844
H   3.1852009373 -3.7200113999  0.9859550367
H   2.1212447391 -2.6682885176 -1.8300266774
H   2.9957513401 -4.2085747462 -1.4129391622
H  -0.2132313713 -2.2754522627 -0.8703855285
H  -2.2421945923 -3.1676738266 -0.4990070523
H  -1.6813644322 -4.4074859317  0.6629201405
H  -2.1007010423 -4.6614592101 -2.3165263306
H  -1.4624644904 -5.8775244445 -1.1450611503
H  -0.6460284576 -2.7805008578 -3.1469353725
H   1.0118901145 -3.0511182589 -3.4146894814
H   0.3679715206 -4.1237316111 -5.3697658094
H  -1.2847795822 -4.6660013468 -4.6981895482
H   1.7197302702 -5.2046243498  1.0709822748
H   0.1145066671 -5.8591164020  0.3794315829
H   1.6583561579 -6.1592924318 -0.5820596291
H  -2.3686954665 -1.0164189849  0.6537903664
