56
MIN01 optimized endpoint
C   2.049585588443 -0.593030184669  1.778128174464
C   1.684073089122 -0.253407099251  0.311056441038
C   2.803412139299  0.605581817158 -0.330425988493
C   2.843905522163  2.051030718569  0.164224706633
C   1.505727638632  2.750206415110 -0.026488318122
O   1.407682104586  3.956887619887 -0.230385986067
C   0.318764802174  1.881491309893  0.116133372392
C   0.373178709629  0.536288019388  0.325807774054
C  -0.883336761899 -0.238237934498  0.620859182863
C  -1.042759548252 -1.446376593830 -0.311559907941
C   0.205901348357 -2.345391552654 -0.228012581369
C   1.495813655078 -1.553781529146 -0.555415462277
C   2.744131551965 -2.461148710374 -0.557308522384
C   2.584970924183 -3.707802551905 -1.443606031853
C   1.335709639725 -4.508333409701 -1.047471534873
C   0.110615303480 -3.570279049632 -1.137425328746
C  -1.107483645561 -4.503903778336 -1.005360061271
C  -0.624429970633 -5.853336707009 -1.601704309099
C   0.863632200716 -5.639085683454 -2.010448520769
C   1.013626961789 -5.373887301274 -3.528244197091
C   1.145924882342 -6.785447137724 -4.097005514595
C   1.798763894570 -7.562930083664 -2.957383426447
O   2.369892743897 -8.625106024821 -2.988555847010
O   1.633567140389 -6.851652180436 -1.796639694880
C   1.529305173903 -5.115814339794  0.358184075211
S  -1.487426829353 -0.908730839314 -2.026974152754
H   2.083646747998  0.323987924394  2.398578739283
H   3.043988356865 -1.076654104745  1.836978416250
H   1.314185759811 -1.278291987580  2.243515811474
H   2.641280045460  0.613012275385 -1.430806813365
H   3.786522874334  0.122141629975 -0.162651935664
H   3.625672755390  2.647408295993 -0.345458173069
H   3.080203538554  2.090656663881  1.251566120909
H  -0.651232438622  2.405869388605  0.109669002321
H  -0.822031346213 -0.626473283234  1.663214986363
H  -1.769914867568  0.422361839715  0.567852852883
H  -1.932998293949 -2.030189967141 -0.001792929179
H   0.251259795719 -2.695493309810  0.829415738628
H   1.356842785284 -1.196351482987 -1.602550488348
H   3.622967766732 -1.884415017917 -0.908114910078
H   2.981028351091 -2.773704328334  0.479986492723
H   2.495096059401 -3.371880586172 -2.497749399773
H   3.495823279710 -4.340259209900 -1.382314307898
H   0.099098861941 -3.164976868480 -2.174701451689
H  -1.992035250518 -4.099318997708 -1.535332809434
H  -1.398311335461 -4.624698677935  0.059128646972
H  -1.233357938592 -6.180112608892 -2.467761086005
H  -0.668040435245 -6.671502372438 -0.857669846821
H   0.164236491201 -4.795953895980 -3.938218516392
H   1.940683447623 -4.803806357310 -3.731991560170
H   1.749467806107 -6.872626641320 -5.019265657493
H   0.161401975789 -7.257193892630 -4.303938735600
H   1.761865631539 -4.341860741536  1.113161537894
H   0.633064290800 -5.660064693525  0.711855792271
H   2.364496531483 -5.841232816875  0.339623840320
H  -0.608186163059  0.133347370018 -2.082821577708
