56
MIN04 optimized endpoint
C   2.497091414115 -2.121521717687  3.365547130887
C   2.410586919828 -1.178157321750  2.139218498211
C   3.816585377007 -0.594657673911  1.849460843173
C   4.316053748720  0.345283683563  2.950325778845
C   3.308648421942  1.421126243399  3.347287456866
O   3.656593583505  2.464336257685  3.895113616731
C   1.897600734538  1.139510042770  3.025269435610
C   1.469973884559 -0.011168137491  2.437464012224
C   0.040811172285 -0.169521670646  1.991357229966
C  -0.447798384114 -1.623539630411  2.031085636855
C   0.438223059119 -2.593839494673  1.169538242404
C   1.831272174866 -1.923093017956  0.892165154887
C   2.822794532315 -2.895567912344  0.232218588297
C   2.259111182826 -3.491577524028 -1.062296308534
C   0.897578852432 -4.147022584950 -0.816205811612
C  -0.099647461936 -3.127221647597 -0.179426092636
C  -1.457391574708 -3.876356461783 -0.279590354100
C  -1.323572052728 -4.825873283098 -1.499881870292
C   0.089057902556 -4.568099006655 -2.076842438491
C   0.057887393034 -3.566337725125 -3.257822046481
C  -0.136710805357 -4.482970074639 -4.464384115013
C   0.518961132892 -5.789517928999 -4.025969646772
O   0.879441086547 -6.723443274868 -4.698960128600
O   0.647707280024 -5.773923756631 -2.661239800315
C   1.099670995249 -5.401672564231  0.065977054981
S  -2.279628580981 -1.657487648001  1.842408808921
H   2.917703809437 -1.593842149753  4.242365272929
H   3.151948796078 -2.988014595878  3.141483791125
H   1.510571452808 -2.515165930746  3.673292304771
H   3.768265315986 -0.038072796438  0.887695576275
H   4.547113638002 -1.416091427560  1.706647154582
H   5.256597569172  0.856484906501  2.663952369239
H   4.557519693165 -0.223420190567  3.875529006359
H   1.190328285419  1.954672085741  3.251213998805
H  -0.632124807513  0.473906478563  2.590362731239
H  -0.039694186830  0.201144476890  0.942253317170
H  -0.363664980222 -1.959240957762  3.085123590125
H   0.610660550939 -3.485511494106  1.807197155468
H   1.645239461981 -1.128222422331  0.132036960043
H   3.763004783620 -2.361959938252 -0.006089490095
H   3.101120017818 -3.700242284576  0.944498578157
H   2.154642226429 -2.666999821464 -1.798643431998
H   2.968621281761 -4.224959978560 -1.500124195327
H  -0.143129434801 -2.255966754206 -0.874375705289
H  -2.304273221629 -3.180434970510 -0.394557650900
H  -1.663863687569 -4.439991703746  0.651159436482
H  -2.110682832429 -4.654628028755 -2.260956205817
H  -1.393480225210 -5.890443266962 -1.206012444875
H  -0.737095923532 -2.806638406766 -3.137359152978
H   1.024890285227 -3.033868234947 -3.345198497577
H   0.310295746880 -4.125966158387 -5.410543917134
H  -1.207324926728 -4.698429891742 -4.668713987968
H   1.680312202217 -5.176046766174  0.978745398245
H   0.145687877700 -5.856499112269  0.391605986001
H   1.653571805616 -6.167135546374 -0.509212908526
H  -2.324074822836 -1.009020912552  0.643244646666
