56
candidate 005 CARTESIAN_THERMAL MIN01
C   2.0525577521 -0.5899424420  1.7661378300
C   1.6488983353 -0.2655573175  0.3675515010
C   2.8571239061  0.6064635357 -0.3307960844
C   2.8394095611  2.0605267887  0.1339686660
C   1.5464281654  2.7344031357  0.0203722855
O   1.3724587654  3.9567042285 -0.2087613133
C   0.3613692846  1.8938559718  0.1779431196
C   0.3671808226  0.5252987712  0.3335700307
C  -0.8718041654 -0.2344709228  0.5764467370
C  -1.0723834869 -1.4247334912 -0.2940230662
C   0.2578561981 -2.3496427740 -0.2679595062
C   1.4765521946 -1.5483076292 -0.5203418722
C   2.7658546396 -2.4455681115 -0.5621458832
C   2.5406837053 -3.7240902190 -1.4897734210
C   1.3750147372 -4.5091565774 -1.0261968696
C   0.1092834055 -3.5561322184 -1.1636916923
C  -1.1106082694 -4.5080779217 -0.9659792821
C  -0.6708748662 -5.8475911872 -1.5974553927
C   0.9051675413 -5.6258781018 -2.0632421597
C   0.9993178301 -5.3885748844 -3.5129425211
C   1.1756348897 -6.7899046588 -4.1162925034
C   1.7466314492 -7.5508260077 -2.9016386290
O   2.4030876337 -8.6494958395 -2.9667701452
O   1.6174667407 -6.8588406017 -1.8265353408
C   1.5313305643 -5.1012503587  0.3878051585
S  -1.5015831048 -0.9049786561 -2.0546710500
H   2.1460939095  0.3097885296  2.4888701756
H   3.0057471625 -1.0640646210  1.8368044961
H   1.3345541029 -1.3078713976  2.1731035156
H   2.5844146663  0.6233792979 -1.3887423822
H   3.8456505210  0.1349226808 -0.1804849021
H   3.6363565998  2.6173803554 -0.2487926779
H   3.1044650303  2.0681706788  1.2861334025
H  -0.6867671795  2.4276283980  0.0794592854
H  -0.7592325629 -0.6449486664  1.6999799624
H  -1.7875026671  0.4319867020  0.5111774365
H  -1.8969728952 -1.9974301106  0.0210501068
H   0.1633048026 -2.7020065177  0.8125471481
H   1.4081948815 -1.1846278498 -1.6678441646
H   3.6082400794 -1.8650742746 -0.8730337222
H   2.9911001456 -2.7981759705  0.4558723831
H   2.4488519187 -3.3758897802 -2.4267581022
H   3.5654649523 -4.3302159552 -1.3680500394
H   0.0723671980 -3.1755129730 -2.2617313912
H  -1.9651183143 -4.0862838127 -1.5368226576
H  -1.4722801555 -4.5912406343  0.0046673310
H  -1.1773854639 -6.1835589965 -2.4208942688
H  -0.6832820795 -6.6545103672 -0.8637930601
H   0.1818264537 -4.7764300267 -4.0039229775
H   1.8966691638 -4.8401341256 -3.6896230236
H   1.8302120797 -6.8957740384 -5.0274573547
H   0.1462660846 -7.2564841910 -4.2252715192
H   1.7844275396 -4.3541654995  1.1010845129
H   0.5455817633 -5.6504934155  0.6424807703
H   2.3979823835 -5.8239747766  0.3746082908
H  -0.6039339259  0.1449878558 -2.1151357656
