56
candidate 055 CONTROLLED_LOCAL MIN02
C   1.3330595967 -1.5961553683  0.7106702489
C   1.2789986707 -0.3793358862 -0.2482827282
C   2.5072899326 -0.3887529064 -1.1927393813
C   3.8268844153 -0.0493624649 -0.5009051513
C   3.7593886731  1.2794480558  0.2395642375
O   4.7472747894  1.9861726971  0.4223101968
C   2.4331342741  1.6340584930  0.7806080941
C   1.3083560216  0.8876831324  0.6092603098
C   0.0402494258  1.2435563846  1.3373609837
C  -1.1867838031  1.2777584691  0.4217652079
C  -1.3165270395 -0.0543273652 -0.3357057318
C  -0.0256077059 -0.3945665859 -1.1258367854
C  -0.1858034826 -1.6932129626 -1.9446965425
C  -1.4371276729 -1.6982627238 -2.8390876520
C  -2.7039209781 -1.4246543583 -2.0148379078
C  -2.5202278699 -0.0769825413 -1.2805867271
C  -3.9139860502  0.2614985690 -0.7211104136
C  -4.9005874864 -0.3979283971 -1.7217560953
C  -4.0225616004 -1.1193538002 -2.7881421946
C  -3.8951722381 -0.2908376836 -4.0898739708
C  -5.1081383163 -0.7542205673 -4.8945242559
C  -5.3186648576 -2.1880934266 -4.4161926758
O  -5.9496478791 -3.0779231773 -4.9312533100
O  -4.6563339355 -2.3500781963 -3.2263181447
C  -2.9662338689 -2.6016961746 -1.0518900273
S  -1.1952197349  2.8413946248 -0.5331603585
H   2.1955764866 -1.5164104476  1.4008020195
H   1.4392400624 -2.5431259218  0.1463525180
H   0.4204690100 -1.6763285248  1.3338449794
H   2.3244380569  0.3595519184 -1.9944118488
H   2.5869133422 -1.3750744274 -1.6923626954
H   4.6743798573 -0.0070353407 -1.2128640915
H   4.0928271741 -0.8268065760  0.2504239611
H   2.4092041748  2.5454677967  1.4006251639
H  -0.0484637439  0.5874182653  2.2350045101
H   0.0924131370  2.2837433302  1.7164574801
H  -2.1084284529  1.2347488104  1.0366505822
H  -1.4762478703 -0.8277449920  0.4501299667
H   0.1040949311  0.4372602214 -1.8554633928
H   0.7081835662 -1.8417449191 -2.5823225322
H  -0.2183631079 -2.5658605394 -1.2611982857
H  -1.3141761024 -0.9075200846 -3.6084483543
H  -1.5185402571 -2.6649686793 -3.3796831558
H  -2.2999995482  0.6734294626 -2.0751229551
H  -4.0562515018  1.3563177831 -0.6353121889
H  -4.0416202457 -0.1633019509  0.2963165845
H  -5.5816700770  0.3360301283 -2.1962108162
H  -5.5426404252 -1.1534115794 -1.2298981197
H  -3.8695041957  0.7974039220 -3.8928718426
H  -2.9671765727 -0.5592945503 -4.6308166002
H  -4.9890631025 -0.7271702700 -5.9933826070
H  -6.0279341528 -0.1807327692 -4.6501331633
H  -2.0979974819 -2.7996008360 -0.3962812498
H  -3.8402671142 -2.4261553231 -0.3962498116
H  -3.1744528789 -3.5193001404 -1.6337735472
H  -1.3759715056  3.6242409350  0.5215727993
