56
M-D02 cycle 5
C   2.5270725654 -0.7891664678  0.9590634161
C   1.7928133191  0.3119696309  0.1465552187
C   2.7787443865  1.0347110122 -0.7929881021
C   3.8191322851  1.8671449891 -0.0351440999
C   3.2277547547  2.8375310573  0.9918617627
O   3.7836851583  3.8814333954  1.3264770660
C   1.9558850107  2.4182569050  1.6114468903
C   1.2693090493  1.3275040438  1.1953288409
C   0.0013330797  0.7706673271  1.7414829935
C  -1.0857894888  1.0345513097  0.6508444423
C  -0.8471261020 -0.3300166182 -0.1460787494
C   0.6203140553 -0.3301338096 -0.7335240060
C   0.9529459279 -1.6975999941 -1.3576623893
C  -0.0761423497 -2.0912037421 -2.4367676979
C  -1.5120622340 -2.0736256498 -1.8822441598
C  -1.8065513338 -0.6754811223 -1.2793843724
C  -3.3207457016 -0.6836273132 -1.0016134517
C  -3.9049630964 -1.6339649014 -2.0825536380
C  -2.6881827725 -2.1641973087 -2.9002770837
C  -2.5129023145 -1.4080168677 -4.2394189352
C  -3.3961172691 -2.2132153575 -5.1907828468
C  -3.3443404858 -3.6228892310 -4.6080761112
O  -3.6285491386 -4.6732960459 -5.1286445400
O  -2.9088508615 -3.5399137539 -3.3102695997
C  -1.6737879667 -3.2154629637 -0.8550972881
S  -0.6885960552  2.2057710216 -0.7262126692
H   3.2627506832 -0.3497360964  1.6602122231
H   3.0728085303 -1.4734358947  0.2808639047
H   1.8264479402 -1.4050026035  1.5565459770
H   2.1808661547  1.7118616566 -1.4409143308
H   3.2817270889  0.3076402102 -1.4651001606
H   4.4602146824  2.4556526174 -0.7201445931
H   4.5106281150  1.2054012516  0.5341671000
H   1.5758640992  3.0526373919  2.4293297639
H   0.0640548140 -0.2998985417  1.9877960920
H  -0.2638458927  1.3041325039  2.6840585041
H  -2.1182180618  1.1627223499  1.0183152454
H  -0.9325921453 -1.1293304623  0.6177746737
H   0.5617323847  0.3546737963 -1.6017373752
H   1.9574723692 -1.6463462144 -1.8273935095
H   1.0194219807 -2.4907777633 -0.5848354201
H   0.0109279256 -1.3609626160 -3.2685521732
H   0.1654653248 -3.0898110677 -2.8582365253
H  -1.6290381238  0.0630208034 -2.0954360653
H  -3.7486958272  0.3364863453 -1.0545215076
H  -3.5314078640 -1.0668375657  0.0183381728
H  -4.6420808732 -1.1329958212 -2.7408903439
H  -4.4231785166 -2.5012371000 -1.6307179704
H  -2.7902319981 -0.3403389352 -4.1568165043
H  -1.4595978758 -1.4594195175 -4.5773575829
H  -3.0738923766 -2.2204121972 -6.2483869852
H  -4.4565200403 -1.8817564966 -5.1733810737
H  -0.9190792456 -3.1570462888 -0.0495614993
H  -2.6702527074 -3.2189201688 -0.3737899200
H  -1.5548763415 -4.1897092785 -1.3653263712
H  -0.4749959454  3.3319438546  0.0154648354
