56
exact QM-native source /Users/yazan/totah-lab/analysis/mettl7-phase2/execution-unit-05O/qm-native-minima/MIN01/trajectory-004.xyz
C   2.140970383300 -0.544271044100  1.771708483800
C   1.723989182600 -0.235967404000  0.311215758400
C   2.808062016800  0.628704986600 -0.383022712300
C   2.868301865500  2.073394678500  0.111360634900
C   1.520530891700  2.768007024800 -0.024218761600
O   1.400323593900  3.975177607700 -0.214882723600
C   0.347187209800  1.886688053700  0.146964652800
C   0.408104002700  0.541095532800  0.356682070200
C  -0.841762601000 -0.236458233000  0.668367585800
C  -1.004881029600 -1.437246711900 -0.269938928400
C   0.238308294100 -2.336202361400 -0.204019506600
C   1.534227624800 -1.553524589000 -0.525950923100
C   2.768374047500 -2.480090177600 -0.481124769600
C   2.621437418100 -3.717800643500 -1.382295992300
C   1.350403074500 -4.505375791500 -1.028149684200
C   0.139808817100 -3.549188572400 -1.129293273900
C  -1.093480114000 -4.467418808100 -1.036538016200
C  -0.615241868300 -5.815620601600 -1.639677231200
C   0.882562990800 -5.614589442200 -2.018178585300
C   1.063172897300 -5.325810220900 -3.528394625000
C   1.192889562100 -6.728591594100 -4.118852772000
C   1.814733023100 -7.532743192400 -2.980483166100
O   2.375379171700 -8.600237175200 -3.019054902300
O   1.633156844000 -6.840276678200 -1.810694895800
C   1.503783258000 -5.138078672400  0.371667743700
S  -1.496481192300 -0.901527215300 -1.968090849100
H   2.153410996800  0.379431445000  2.382612559700
H   3.154241226800 -0.988946157700  1.810073308300
H   1.443227875000 -1.253107329400  2.260473342900
H   2.589845340900  0.638883663000 -1.473423974500
H   3.799124344100  0.145472388300 -0.267719273400
H   3.624217497100  2.673052773000 -0.432251432600
H   3.152532815000  2.114062992900  1.187040498200
H  -0.625502434500  2.405013019000  0.162174220800
H  -0.746553317200 -0.644662295400  1.702376457200
H  -1.732921648800  0.417259182500  0.650979020900
H  -1.891687289900 -2.026768623800  0.043289061400
H   0.289060907700 -2.698124798400  0.849544492600
H   1.423829638100 -1.222112409800 -1.585489240300
H   3.672595592500 -1.916458738500 -0.787044311200
H   2.952026502000 -2.804870521000  0.562894319400
H   2.567744382100 -3.372553480200 -2.435892069100
H   3.521373314600 -4.363125140700 -1.299077110300
H   0.152375680900 -3.130782276400 -2.161406555900
H  -1.957141574200 -4.040535336600 -1.582876545600
H  -1.412126339300 -4.598267545400  0.018699277500
H  -1.211868347400 -6.125779824700 -2.520284715700
H  -0.681379487400 -6.641567940700 -0.906000122300
H   0.226662644100 -4.733389420300 -3.944072926600
H   1.998897580400 -4.760963559100 -3.705562917000
H   1.813955389600 -6.806005098000 -5.030283074300
H   0.208087450800 -7.186516286100 -4.353582788700
H   1.747271214900 -4.382439037900  1.141566956800
H   0.586411786900 -5.659914585700  0.704003013000
H   2.317757128500 -5.887182249800  0.355018025900
H  -0.535637622600  0.057850519800 -2.113744365800
